%%MatrixMarket matrix coordinate integer general
%
18082 9176 9176
1743 9176 1
1743 9175 1
1743 9174 1
1743 9173 1
1743 9172 1
1743 9171 1
1743 9170 1
1743 9169 1
1743 9168 1
1743 9167 1
1743 9166 1
1743 9165 1
1743 9164 1
1743 9163 1
1743 9162 1
1743 9161 1
1743 9160 1
1743 9159 1
1743 9158 1
1743 9157 1
1743 9156 1
1743 9155 1
1743 9154 1
1743 9153 1
1743 9152 1
1743 9151 1
1743 9150 1
1743 9149 1
1743 9148 1
1743 9147 1
1743 9146 1
1743 9145 1
1743 9144 1
1743 9143 1
1743 9142 1
1743 9141 1
1743 9140 1
1743 9139 1
1743 9138 1
1743 9137 1
1743 9136 1
1743 9135 1
1743 9134 1
1743 9133 1
1743 9132 1
1743 9131 1
1743 9130 1
1743 9129 1
1743 9128 1
1743 9127 1
1743 9126 1
1743 9125 1
1743 9124 1
1743 9123 1
1743 9122 1
1743 9121 1
1743 9120 1
1743 9119 1
1743 9118 1
1743 9117 1
1743 9116 1
1743 9115 1
1743 9114 1
1743 9113 1
1743 9112 1
1743 9111 1
1743 9110 1
1743 9109 1
1743 9108 1
1743 9107 1
1743 9106 1
1743 9105 1
1743 9104 1
1743 9103 1
1743 9102 1
1743 9101 1
1743 9100 1
1743 9099 1
1743 9098 1
1743 9097 1
1743 9096 1
1743 9095 1
1743 9094 1
1743 9093 1
1743 9092 1
1743 9091 1
1743 9090 1
1743 9089 1
1743 9088 1
1743 9087 1
1743 9086 1
1743 9085 1
1743 9084 1
1743 9083 1
1743 9082 1
1743 9081 1
1743 9080 1
1743 9079 1
1743 9078 1
1743 9077 1
1743 9076 1
1743 9075 1
1743 9074 1
1743 9073 1
1743 9072 1
1743 9071 1
1743 9070 1
1743 9069 1
1743 9068 1
1743 9067 1
1743 9066 1
1743 9065 1
1743 9064 1
1743 9063 1
1743 9062 1
1743 9061 1
1743 9060 1
1743 9059 1
1743 9058 1
1743 9057 1
1743 9056 1
1743 9055 1
1743 9054 1
1743 9053 1
1743 9052 1
1743 9051 1
1743 9050 1
1743 9049 1
1743 9048 1
1743 9047 1
1743 9046 1
1743 9045 1
1743 9044 1
1743 9043 1
1743 9042 1
1743 9041 1
1743 9040 1
1743 9039 1
1743 9038 1
1743 9037 1
1743 9036 1
1743 9035 1
1743 9034 1
1743 9033 1
1743 9032 1
1743 9031 1
1743 9030 1
1743 9029 1
1743 9028 1
1743 9027 1
1743 9026 1
1743 9025 1
1743 9024 1
1743 9023 1
1743 9022 1
1743 9021 1
1743 9020 1
1743 9019 1
1743 9018 1
1743 9017 1
1743 9016 1
1743 9015 1
1743 9014 1
1743 9013 1
1743 9012 1
1743 9011 1
1743 9010 1
1743 9009 1
1743 9008 1
1743 9007 1
1743 9006 1
1743 9005 1
1743 9004 1
1743 9003 1
1743 9002 1
1743 9001 1
1743 9000 1
1743 8999 1
1743 8998 1
1743 8997 1
1743 8996 1
1743 8995 1
1743 8994 1
1743 8993 1
1743 8992 1
1743 8991 1
1743 8990 1
1743 8989 1
1743 8988 1
1743 8987 1
1743 8986 1
1743 8985 1
1743 8984 1
1743 8983 1
1743 8982 1
1743 8981 1
1743 8980 1
1743 8979 1
1743 8978 1
1743 8977 1
1743 8976 1
1743 8975 1
1743 8974 1
1743 8973 1
1743 8972 1
1743 8971 1
1743 8970 1
1743 8969 1
1743 8968 1
1743 8967 1
1743 8966 1
1743 8965 1
1743 8964 1
1743 8963 1
1743 8962 1
1743 8961 1
1743 8960 1
1743 8959 1
1743 8958 1
1743 8957 1
1743 8956 1
1743 8955 1
1743 8954 1
1743 8953 1
1743 8952 1
1743 8951 1
1743 8950 1
1743 8949 1
1743 8948 1
1743 8947 1
1743 8946 1
1743 8945 1
1743 8944 1
1743 8943 1
1743 8942 1
1743 8941 1
1743 8940 1
1743 8939 1
1743 8938 1
1743 8937 1
1743 8936 1
1743 8935 1
1743 8934 1
1743 8933 1
1743 8932 1
1743 8931 1
1743 8930 1
1743 8929 1
1743 8928 1
1743 8927 1
1743 8926 1
1743 8925 1
1743 8924 1
1743 8923 1
1743 8922 1
1743 8921 1
1743 8920 1
1743 8919 1
1743 8918 1
1743 8917 1
1743 8916 1
1743 8915 1
1743 8914 1
1743 8913 1
1743 8912 1
1743 8911 1
1743 8910 1
1743 8909 1
1743 8908 1
1743 8907 1
1743 8906 1
1743 8905 1
1743 8904 1
1743 8903 1
1743 8902 1
1743 8901 1
1743 8900 1
1743 8899 1
1743 8898 1
1743 8897 1
1743 8896 1
1743 8895 1
1743 8894 1
1743 8893 1
1743 8892 1
1743 8891 1
1743 8890 1
1743 8889 1
1743 8888 1
1743 8887 1
1743 8886 1
1743 8885 1
1743 8884 1
1743 8883 1
1743 8882 1
1743 8881 1
1743 8880 1
1743 8879 1
1743 8878 1
1743 8877 1
1743 8876 1
1743 8875 1
1743 8874 1
1743 8873 1
1743 8872 1
1743 8871 1
1743 8870 1
1743 8869 1
1743 8868 1
1743 8867 1
1743 8866 1
1743 8865 1
1743 8864 1
1743 8863 1
1743 8862 1
1743 8861 1
1743 8860 1
1743 8859 1
1743 8858 1
1743 8857 1
1743 8856 1
1743 8855 1
1743 8854 1
1743 8853 1
1743 8852 1
1743 8851 1
1743 8850 1
1743 8849 1
1743 8848 1
1743 8847 1
1743 8846 1
1743 8845 1
1743 8844 1
1743 8843 1
1743 8842 1
1743 8841 1
1743 8840 1
1743 8839 1
1743 8838 1
1743 8837 1
1743 8836 1
1743 8835 1
1743 8834 1
1743 8833 1
1743 8832 1
1743 8831 1
1743 8830 1
1743 8829 1
1743 8828 1
1743 8827 1
1743 8826 1
1743 8825 1
1743 8824 1
1743 8823 1
1743 8822 1
1743 8821 1
1743 8820 1
1743 8819 1
1743 8818 1
1743 8817 1
1743 8816 1
1743 8815 1
1743 8814 1
1743 8813 1
1743 8812 1
1743 8811 1
1743 8810 1
1743 8809 1
1743 8808 1
1743 8807 1
1743 8806 1
1743 8805 1
1743 8804 1
1743 8803 1
1743 8802 1
1743 8801 1
1743 8800 1
1743 8799 1
1743 8798 1
1743 8797 1
1743 8796 1
1743 8795 1
1743 8794 1
1743 8793 1
1743 8792 1
1743 8791 1
1743 8790 1
1743 8789 1
1743 8788 1
1743 8787 1
1743 8786 1
1743 8785 1
1743 8784 1
1743 8783 1
1743 8782 1
1743 8781 1
1743 8780 1
1743 8779 1
1743 8778 1
1743 8777 1
1743 8776 1
1743 8775 1
1743 8774 1
1743 8773 1
1743 8772 1
1743 8771 1
1743 8770 1
1743 8769 1
1743 8768 1
1743 8767 1
1743 8766 1
1743 8765 1
1743 8764 1
1743 8763 1
1743 8762 1
1743 8761 1
1743 8760 1
1743 8759 1
1743 8758 1
1743 8757 1
1743 8756 1
1743 8755 1
1743 8754 1
1743 8753 1
1743 8752 1
1743 8751 1
1743 8750 1
1743 8749 1
1743 8748 1
1743 8747 1
1743 8746 1
1743 8745 1
1743 8744 1
1743 8743 1
1743 8742 1
1743 8741 1
1743 8740 1
1743 8739 1
1743 8738 1
1743 8737 1
1743 8736 1
1743 8735 1
1743 8734 1
1743 8733 1
1743 8732 1
1743 8731 1
1743 8730 1
1743 8729 1
1743 8728 1
1743 8727 1
1743 8726 1
1743 8725 1
1743 8724 1
1743 8723 1
1743 8722 1
1743 8721 1
1743 8720 1
1743 8719 1
1743 8718 1
1743 8717 1
1743 8716 1
1743 8715 1
1743 8714 1
1743 8713 1
1743 8712 1
1743 8711 1
1743 8710 1
1743 8709 1
1743 8708 1
1743 8707 1
1743 8706 1
1743 8705 1
1743 8704 1
1743 8703 1
1743 8702 1
1743 8701 1
1743 8700 1
1743 8699 1
1743 8698 1
1743 8697 1
1743 8696 1
1743 8695 1
1743 8694 1
1743 8693 1
1743 8692 1
1743 8691 1
1743 8690 1
1743 8689 1
1743 8688 1
1743 8687 1
1743 8686 1
1743 8685 1
1743 8684 1
1743 8683 1
1743 8682 1
1743 8681 1
1743 8680 1
1743 8679 1
1743 8678 1
1743 8677 1
1743 8676 1
1743 8675 1
1743 8674 1
1743 8673 1
1743 8672 1
1743 8671 1
1743 8670 1
1743 8669 1
1743 8668 1
1743 8667 1
1743 8666 1
1743 8665 1
1743 8664 1
1743 8663 1
1743 8662 1
1743 8661 1
1743 8660 1
1743 8659 1
1743 8658 1
1743 8657 1
1743 8656 1
1743 8655 1
1743 8654 1
1743 8653 1
1743 8652 1
1743 8651 1
1743 8650 1
1743 8649 1
1743 8648 1
1743 8647 1
1743 8646 1
1743 8645 1
1743 8644 1
1743 8643 1
1743 8642 1
1743 8641 1
1743 8640 1
1743 8639 1
1743 8638 1
1743 8637 1
1743 8636 1
1743 8635 1
1743 8634 1
1743 8633 1
1743 8632 1
1743 8631 1
1743 8630 1
1743 8629 1
1743 8628 1
1743 8627 1
1743 8626 1
1743 8625 1
1743 8624 1
1743 8623 1
1743 8622 1
1743 8621 1
1743 8620 1
1743 8619 1
1743 8618 1
1743 8617 1
1743 8616 1
1743 8615 1
1743 8614 1
1743 8613 1
1743 8612 1
1743 8611 1
1743 8610 1
1743 8609 1
1743 8608 1
1743 8607 1
1743 8606 1
1743 8605 1
1743 8604 1
1743 8603 1
1743 8602 1
1743 8601 1
1743 8600 1
1743 8599 1
1743 8598 1
1743 8597 1
1743 8596 1
1743 8595 1
1743 8594 1
1743 8593 1
1743 8592 1
1743 8591 1
1743 8590 1
1743 8589 1
1743 8588 1
1743 8587 1
1743 8586 1
1743 8585 1
1743 8584 1
1743 8583 1
1743 8582 1
1743 8581 1
1743 8580 1
1743 8579 1
1743 8578 1
1743 8577 1
1743 8576 1
1743 8575 1
1743 8574 1
1743 8573 1
1743 8572 1
1743 8571 1
1743 8570 1
1743 8569 1
1743 8568 1
1743 8567 1
1743 8566 1
1743 8565 1
1743 8564 1
1743 8563 1
1743 8562 1
1743 8561 1
1743 8560 1
1743 8559 1
1743 8558 1
1743 8557 1
1743 8556 1
1743 8555 1
1743 8554 1
1743 8553 1
1743 8552 1
1743 8551 1
1743 8550 1
1743 8549 1
1743 8548 1
1743 8547 1
1743 8546 1
1743 8545 1
1743 8544 1
1743 8543 1
1743 8542 1
1743 8541 1
1743 8540 1
1743 8539 1
1743 8538 1
1743 8537 1
1743 8536 1
1743 8535 1
1743 8534 1
1743 8533 1
1743 8532 1
1743 8531 1
1743 8530 1
1743 8529 1
1743 8528 1
1743 8527 1
1743 8526 1
1743 8525 1
1743 8524 1
1743 8523 1
1743 8522 1
1743 8521 1
1743 8520 1
1743 8519 1
1743 8518 1
1743 8517 1
1743 8516 1
1743 8515 1
1743 8514 1
1743 8513 1
1743 8512 1
1743 8511 1
1743 8510 1
1743 8509 1
1743 8508 1
1743 8507 1
1743 8506 1
1743 8505 1
1743 8504 1
1743 8503 1
1743 8502 1
1743 8501 1
1743 8500 1
1743 8499 1
1743 8498 1
1743 8497 1
1743 8496 1
1743 8495 1
1743 8494 1
1743 8493 1
1743 8492 1
1743 8491 1
1743 8490 1
1743 8489 1
1743 8488 1
1743 8487 1
1743 8486 1
1743 8485 1
1743 8484 1
1743 8483 1
1743 8482 1
1743 8481 1
1743 8480 1
1743 8479 1
1743 8478 1
1743 8477 1
1743 8476 1
1743 8475 1
1743 8474 1
1743 8473 1
1743 8472 1
1743 8471 1
1743 8470 1
1743 8469 1
1743 8468 1
1743 8467 1
1743 8466 1
1743 8465 1
1743 8464 1
1743 8463 1
1743 8462 1
1743 8461 1
1743 8460 1
1743 8459 1
1743 8458 1
1743 8457 1
1743 8456 1
1743 8455 1
1743 8454 1
1743 8453 1
1743 8452 1
1743 8451 1
1743 8450 1
1743 8449 1
1743 8448 1
1743 8447 1
1743 8446 1
1743 8445 1
1743 8444 1
1743 8443 1
1743 8442 1
1743 8441 1
1743 8440 1
1743 8439 1
1743 8438 1
1743 8437 1
1743 8436 1
1743 8435 1
1743 8434 1
1743 8433 1
1743 8432 1
1743 8431 1
1743 8430 1
1743 8429 1
1743 8428 1
1743 8427 1
1743 8426 1
1743 8425 1
1743 8424 1
1743 8423 1
1743 8422 1
1743 8421 1
1743 8420 1
1743 8419 1
1743 8418 1
1743 8417 1
1743 8416 1
1743 8415 1
1743 8414 1
1743 8413 1
1743 8412 1
1743 8411 1
1743 8410 1
1743 8409 1
1743 8408 1
1743 8407 1
1743 8406 1
1743 8405 1
1743 8404 1
1743 8403 1
1743 8402 1
1743 8401 1
1743 8400 1
1743 8399 1
1743 8398 1
1743 8397 1
1743 8396 1
1743 8395 1
1743 8394 1
1743 8393 1
1743 8392 1
1743 8391 1
1743 8390 1
1743 8389 1
1743 8388 1
1743 8387 1
1743 8386 1
1743 8385 1
1743 8384 1
1743 8383 1
1743 8382 1
1743 8381 1
1743 8380 1
1743 8379 1
1743 8378 1
1743 8377 1
1743 8376 1
1743 8375 1
1743 8374 1
1743 8373 1
1743 8372 1
1743 8371 1
1743 8370 1
1743 8369 1
1743 8368 1
1743 8367 1
1743 8366 1
1743 8365 1
1743 8364 1
1743 8363 1
1743 8362 1
1743 8361 1
1743 8360 1
1743 8359 1
1743 8358 1
1743 8357 1
1743 8356 1
1743 8355 1
1743 8354 1
1743 8353 1
1743 8352 1
1743 8351 1
1743 8350 1
1743 8349 1
1743 8348 1
1743 8347 1
1743 8346 1
1743 8345 1
1743 8344 1
1743 8343 1
1743 8342 1
1743 8341 1
1743 8340 1
1743 8339 1
1743 8338 1
1743 8337 1
1743 8336 1
1743 8335 1
1743 8334 1
1743 8333 1
1743 8332 1
1743 8331 1
1743 8330 1
1743 8329 1
1743 8328 1
1743 8327 1
1743 8326 1
1743 8325 1
1743 8324 1
1743 8323 1
1743 8322 1
1743 8321 1
1743 8320 1
1743 8319 1
1743 8318 1
1743 8317 1
1743 8316 1
1743 8315 1
1743 8314 1
1743 8313 1
1743 8312 1
1743 8311 1
1743 8310 1
1743 8309 1
1743 8308 1
1743 8307 1
1743 8306 1
1743 8305 1
1743 8304 1
1743 8303 1
1743 8302 1
1743 8301 1
1743 8300 1
1743 8299 1
1743 8298 1
1743 8297 1
1743 8296 1
1743 8295 1
1743 8294 1
1743 8293 1
1743 8292 1
1743 8291 1
1743 8290 1
1743 8289 1
1743 8288 1
1743 8287 1
1743 8286 1
1743 8285 1
1743 8284 1
1743 8283 1
1743 8282 1
1743 8281 1
1743 8280 1
1743 8279 1
1743 8278 1
1743 8277 1
1743 8276 1
1743 8275 1
1743 8274 1
1743 8273 1
1743 8272 1
1743 8271 1
1743 8270 1
1743 8269 1
1743 8268 1
1743 8267 1
1743 8266 1
1743 8265 1
1743 8264 1
1743 8263 1
1743 8262 1
1743 8261 1
1743 8260 1
1743 8259 1
1743 8258 1
1743 8257 1
1743 8256 1
1743 8255 1
1743 8254 1
1743 8253 1
1743 8252 1
1743 8251 1
1743 8250 1
1743 8249 1
1743 8248 1
1743 8247 1
1743 8246 1
1743 8245 1
1743 8244 1
1743 8243 1
1743 8242 1
1743 8241 1
1743 8240 1
1743 8239 1
1743 8238 1
1743 8237 1
1743 8236 1
1743 8235 1
1743 8234 1
1743 8233 1
1743 8232 1
1743 8231 1
1743 8230 1
1743 8229 1
1743 8228 1
1743 8227 1
1743 8226 1
1743 8225 1
1743 8224 1
1743 8223 1
1743 8222 1
1743 8221 1
1743 8220 1
1743 8219 1
1743 8218 1
1743 8217 1
1743 8216 1
1743 8215 1
1743 8214 1
1743 8213 1
1743 8212 1
1743 8211 1
1743 8210 1
1743 8209 1
1743 8208 1
1743 8207 1
1743 8206 1
1743 8205 1
1743 8204 1
1743 8203 1
1743 8202 1
1743 8201 1
1743 8200 1
1743 8199 1
1743 8198 1
1743 8197 1
1743 8196 1
1743 8195 1
1743 8194 1
1743 8193 1
1743 8192 1
1743 8191 1
1743 8190 1
1743 8189 1
1743 8188 1
1743 8187 1
1743 8186 1
1743 8185 1
1743 8184 1
1743 8183 1
1743 8182 1
1743 8181 1
1743 8180 1
1743 8179 1
1743 8178 1
1743 8177 1
1743 8176 1
1743 8175 1
1743 8174 1
1743 8173 1
1743 8172 1
1743 8171 1
1743 8170 1
1743 8169 1
1743 8168 1
1743 8167 1
1743 8166 1
1743 8165 1
1743 8164 1
1743 8163 1
1743 8162 1
1743 8161 1
1743 8160 1
1743 8159 1
1743 8158 1
1743 8157 1
1743 8156 1
1743 8155 1
1743 8154 1
1743 8153 1
1743 8152 1
1743 8151 1
1743 8150 1
1743 8149 1
1743 8148 1
1743 8147 1
1743 8146 1
1743 8145 1
1743 8144 1
1743 8143 1
1743 8142 1
1743 8141 1
1743 8140 1
1743 8139 1
1743 8138 1
1743 8137 1
1743 8136 1
1743 8135 1
1743 8134 1
1743 8133 1
1743 8132 1
1743 8131 1
1743 8130 1
1743 8129 1
1743 8128 1
1743 8127 1
1743 8126 1
1743 8125 1
1743 8124 1
1743 8123 1
1743 8122 1
1743 8121 1
1743 8120 1
1743 8119 1
1743 8118 1
1743 8117 1
1743 8116 1
1743 8115 1
1743 8114 1
1743 8113 1
1743 8112 1
1743 8111 1
1743 8110 1
1743 8109 1
1743 8108 1
1743 8107 1
1743 8106 1
1743 8105 1
1743 8104 1
1743 8103 1
1743 8102 1
1743 8101 1
1743 8100 1
1743 8099 1
1743 8098 1
1743 8097 1
1743 8096 1
1743 8095 1
1743 8094 1
1743 8093 1
1743 8092 1
1743 8091 1
1743 8090 1
1743 8089 1
1743 8088 1
1743 8087 1
1743 8086 1
1743 8085 1
1743 8084 1
1743 8083 1
1743 8082 1
1743 8081 1
1743 8080 1
1743 8079 1
1743 8078 1
1743 8077 1
1743 8076 1
1743 8075 1
1743 8074 1
1743 8073 1
1743 8072 1
1743 8071 1
1743 8070 1
1743 8069 1
1743 8068 1
1743 8067 1
1743 8066 1
1743 8065 1
1743 8064 1
1743 8063 1
1743 8062 1
1743 8061 1
1743 8060 1
1743 8059 1
1743 8058 1
1743 8057 1
1743 8056 1
1743 8055 1
1743 8054 1
1743 8053 1
1743 8052 1
1743 8051 1
1743 8050 1
1743 8049 1
1743 8048 1
1743 8047 1
1743 8046 1
1743 8045 1
1743 8044 1
1743 8043 1
1743 8042 1
1743 8041 1
1743 8040 1
1743 8039 1
1743 8038 1
1743 8037 1
1743 8036 1
1743 8035 1
1743 8034 1
1743 8033 1
1743 8032 1
1743 8031 1
1743 8030 1
1743 8029 1
1743 8028 1
1743 8027 1
1743 8026 1
1743 8025 1
1743 8024 1
1743 8023 1
1743 8022 1
1743 8021 1
1743 8020 1
1743 8019 1
1743 8018 1
1743 8017 1
1743 8016 1
1743 8015 1
1743 8014 1
1743 8013 1
1743 8012 1
1743 8011 1
1743 8010 1
1743 8009 1
1743 8008 1
1743 8007 1
1743 8006 1
1743 8005 1
1743 8004 1
1743 8003 1
1743 8002 1
1743 8001 1
1743 8000 1
1743 7999 1
1743 7998 1
1743 7997 1
1743 7996 1
1743 7995 1
1743 7994 1
1743 7993 1
1743 7992 1
1743 7991 1
1743 7990 1
1743 7989 1
1743 7988 1
1743 7987 1
1743 7986 1
1743 7985 1
1743 7984 1
1743 7983 1
1743 7982 1
1743 7981 1
1743 7980 1
1743 7979 1
1743 7978 1
1743 7977 1
1743 7976 1
1743 7975 1
1743 7974 1
1743 7973 1
1743 7972 1
1743 7971 1
1743 7970 1
1743 7969 1
1743 7968 1
1743 7967 1
1743 7966 1
1743 7965 1
1743 7964 1
1743 7963 1
1743 7962 1
1743 7961 1
1743 7960 1
1743 7959 1
1743 7958 1
1743 7957 1
1743 7956 1
1743 7955 1
1743 7954 1
1743 7953 1
1743 7952 1
1743 7951 1
1743 7950 1
1743 7949 1
1743 7948 1
1743 7947 1
1743 7946 1
1743 7945 1
1743 7944 1
1743 7943 1
1743 7942 1
1743 7941 1
1743 7940 1
1743 7939 1
1743 7938 1
1743 7937 1
1743 7936 1
1743 7935 1
1743 7934 1
1743 7933 1
1743 7932 1
1743 7931 1
1743 7930 1
1743 7929 1
1743 7928 1
1743 7927 1
1743 7926 1
1743 7925 1
1743 7924 1
1743 7923 1
1743 7922 1
1743 7921 1
1743 7920 1
1743 7919 1
1743 7918 1
1743 7917 1
1743 7916 1
1743 7915 1
1743 7914 1
1743 7913 1
1743 7912 1
1743 7911 1
1743 7910 1
1743 7909 1
1743 7908 1
1743 7907 1
1743 7906 1
1743 7905 1
1743 7904 1
1743 7903 1
1743 7902 1
1743 7901 1
1743 7900 1
1743 7899 1
1743 7898 1
1743 7897 1
1743 7896 1
1743 7895 1
1743 7894 1
1743 7893 1
1743 7892 1
1743 7891 1
1743 7890 1
1743 7889 1
1743 7888 1
1743 7887 1
1743 7886 1
1743 7885 1
1743 7884 1
1743 7883 1
1743 7882 1
1743 7881 1
1743 7880 1
1743 7879 1
1743 7878 1
1743 7877 1
1743 7876 1
1743 7875 1
1743 7874 1
1743 7873 1
1743 7872 1
1743 7871 1
1743 7870 1
1743 7869 1
1743 7868 1
1743 7867 1
1743 7866 1
1743 7865 1
1743 7864 1
1743 7863 1
1743 7862 1
1743 7861 1
1743 7860 1
1743 7859 1
1743 7858 1
1743 7857 1
1743 7856 1
1743 7855 1
1743 7854 1
1743 7853 1
1743 7852 1
1743 7851 1
1743 7850 1
1743 7849 1
1743 7848 1
1743 7847 1
1743 7846 1
1743 7845 1
1743 7844 1
1743 7843 1
1743 7842 1
1743 7841 1
1743 7840 1
1743 7839 1
1743 7838 1
1743 7837 1
1743 7836 1
1743 7835 1
1743 7834 1
1743 7833 1
1743 7832 1
1743 7831 1
1743 7830 1
1743 7829 1
1743 7828 1
1743 7827 1
1743 7826 1
1743 7825 1
1743 7824 1
1743 7823 1
1743 7822 1
1743 7821 1
1743 7820 1
1743 7819 1
1743 7818 1
1743 7817 1
1743 7816 1
1743 7815 1
1743 7814 1
1743 7813 1
1743 7812 1
1743 7811 1
1743 7810 1
1743 7809 1
1743 7808 1
1743 7807 1
1743 7806 1
1743 7805 1
1743 7804 1
1743 7803 1
1743 7802 1
1743 7801 1
1743 7800 1
1743 7799 1
1743 7798 1
1743 7797 1
1743 7796 1
1743 7795 1
1743 7794 1
1743 7793 1
1743 7792 1
1743 7791 1
1743 7790 1
1743 7789 1
1743 7788 1
1743 7787 1
1743 7786 1
1743 7785 1
1743 7784 1
1743 7783 1
1743 7782 1
1743 7781 1
1743 7780 1
1743 7779 1
1743 7778 1
1743 7777 1
1743 7776 1
1743 7775 1
1743 7774 1
1743 7773 1
1743 7772 1
1743 7771 1
1743 7770 1
1743 7769 1
1743 7768 1
1743 7767 1
1743 7766 1
1743 7765 1
1743 7764 1
1743 7763 1
1743 7762 1
1743 7761 1
1743 7760 1
1743 7759 1
1743 7758 1
1743 7757 1
1743 7756 1
1743 7755 1
1743 7754 1
1743 7753 1
1743 7752 1
1743 7751 1
1743 7750 1
1743 7749 1
1743 7748 1
1743 7747 1
1743 7746 1
1743 7745 1
1743 7744 1
1743 7743 1
1743 7742 1
1743 7741 1
1743 7740 1
1743 7739 1
1743 7738 1
1743 7737 1
1743 7736 1
1743 7735 1
1743 7734 1
1743 7733 1
1743 7732 1
1743 7731 1
1743 7730 1
1743 7729 1
1743 7728 1
1743 7727 1
1743 7726 1
1743 7725 1
1743 7724 1
1743 7723 1
1743 7722 1
1743 7721 1
1743 7720 1
1743 7719 1
1743 7718 1
1743 7717 1
1743 7716 1
1743 7715 1
1743 7714 1
1743 7713 1
1743 7712 1
1743 7711 1
1743 7710 1
1743 7709 1
1743 7708 1
1743 7707 1
1743 7706 1
1743 7705 1
1743 7704 1
1743 7703 1
1743 7702 1
1743 7701 1
1743 7700 1
1743 7699 1
1743 7698 1
1743 7697 1
1743 7696 1
1743 7695 1
1743 7694 1
1743 7693 1
1743 7692 1
1743 7691 1
1743 7690 1
1743 7689 1
1743 7688 1
1743 7687 1
1743 7686 1
1743 7685 1
1743 7684 1
1743 7683 1
1743 7682 1
1743 7681 1
1743 7680 1
1743 7679 1
1743 7678 1
1743 7677 1
1743 7676 1
1743 7675 1
1743 7674 1
1743 7673 1
1743 7672 1
1743 7671 1
1743 7670 1
1743 7669 1
1743 7668 1
1743 7667 1
1743 7666 1
1743 7665 1
1743 7664 1
1743 7663 1
1743 7662 1
1743 7661 1
1743 7660 1
1743 7659 1
1743 7658 1
1743 7657 1
1743 7656 1
1743 7655 1
1743 7654 1
1743 7653 1
1743 7652 1
1743 7651 1
1743 7650 1
1743 7649 1
1743 7648 1
1743 7647 1
1743 7646 1
1743 7645 1
1743 7644 1
1743 7643 1
1743 7642 1
1743 7641 1
1743 7640 1
1743 7639 1
1743 7638 1
1743 7637 1
1743 7636 1
1743 7635 1
1743 7634 1
1743 7633 1
1743 7632 1
1743 7631 1
1743 7630 1
1743 7629 1
1743 7628 1
1743 7627 1
1743 7626 1
1743 7625 1
1743 7624 1
1743 7623 1
1743 7622 1
1743 7621 1
1743 7620 1
1743 7619 1
1743 7618 1
1743 7617 1
1743 7616 1
1743 7615 1
1743 7614 1
1743 7613 1
1743 7612 1
1743 7611 1
1743 7610 1
1743 7609 1
1743 7608 1
1743 7607 1
1743 7606 1
1743 7605 1
1743 7604 1
1743 7603 1
1743 7602 1
1743 7601 1
1743 7600 1
1743 7599 1
1743 7598 1
1743 7597 1
1743 7596 1
1743 7595 1
1743 7594 1
1743 7593 1
1743 7592 1
1743 7591 1
1743 7590 1
1743 7589 1
1743 7588 1
1743 7587 1
1743 7586 1
1743 7585 1
1743 7584 1
1743 7583 1
1743 7582 1
1743 7581 1
1743 7580 1
1743 7579 1
1743 7578 1
1743 7577 1
1743 7576 1
1743 7575 1
1743 7574 1
1743 7573 1
1743 7572 1
1743 7571 1
1743 7570 1
1743 7569 1
1743 7568 1
1743 7567 1
1743 7566 1
1743 7565 1
1743 7564 1
1743 7563 1
1743 7562 1
1743 7561 1
1743 7560 1
1743 7559 1
1743 7558 1
1743 7557 1
1743 7556 1
1743 7555 1
1743 7554 1
1743 7553 1
1743 7552 1
1743 7551 1
1743 7550 1
1743 7549 1
1743 7548 1
1743 7547 1
1743 7546 1
1743 7545 1
1743 7544 1
1743 7543 1
1743 7542 1
1743 7541 1
1743 7540 1
1743 7539 1
1743 7538 1
1743 7537 1
1743 7536 1
1743 7535 1
1743 7534 1
1743 7533 1
1743 7532 1
1743 7531 1
1743 7530 1
1743 7529 1
1743 7528 1
1743 7527 1
1743 7526 1
1743 7525 1
1743 7524 1
1743 7523 1
1743 7522 1
1743 7521 1
1743 7520 1
1743 7519 1
1743 7518 1
1743 7517 1
1743 7516 1
1743 7515 1
1743 7514 1
1743 7513 1
1743 7512 1
1743 7511 1
1743 7510 1
1743 7509 1
1743 7508 1
1743 7507 1
1743 7506 1
1743 7505 1
1743 7504 1
1743 7503 1
1743 7502 1
1743 7501 1
1743 7500 1
1743 7499 1
1743 7498 1
1743 7497 1
1743 7496 1
1743 7495 1
1743 7494 1
1743 7493 1
1743 7492 1
1743 7491 1
1743 7490 1
1743 7489 1
1743 7488 1
1743 7487 1
1743 7486 1
1743 7485 1
1743 7484 1
1743 7483 1
1743 7482 1
1743 7481 1
1743 7480 1
1743 7479 1
1743 7478 1
1743 7477 1
1743 7476 1
1743 7475 1
1743 7474 1
1743 7473 1
1743 7472 1
1743 7471 1
1743 7470 1
1743 7469 1
1743 7468 1
1743 7467 1
1743 7466 1
1743 7465 1
1743 7464 1
1743 7463 1
1743 7462 1
1743 7461 1
1743 7460 1
1743 7459 1
1743 7458 1
1743 7457 1
1743 7456 1
1743 7455 1
1743 7454 1
1743 7453 1
1743 7452 1
1743 7451 1
1743 7450 1
1743 7449 1
1743 7448 1
1743 7447 1
1743 7446 1
1743 7445 1
1743 7444 1
1743 7443 1
1743 7442 1
1743 7441 1
1743 7440 1
1743 7439 1
1743 7438 1
1743 7437 1
1743 7436 1
1743 7435 1
1743 7434 1
1743 7433 1
1743 7432 1
1743 7431 1
1743 7430 1
1743 7429 1
1743 7428 1
1743 7427 1
1743 7426 1
1743 7425 1
1743 7424 1
1743 7423 1
1743 7422 1
1743 7421 1
1743 7420 1
1743 7419 1
1743 7418 1
1743 7417 1
1743 7416 1
1743 7415 1
1743 7414 1
1743 7413 1
1743 7412 1
1743 7411 1
1743 7410 1
1743 7409 1
1743 7408 1
1743 7407 1
1743 7406 1
1743 7405 1
1743 7404 1
1743 7403 1
1743 7402 1
1743 7401 1
1743 7400 1
1743 7399 1
1743 7398 1
1743 7397 1
1743 7396 1
1743 7395 1
1743 7394 1
1743 7393 1
1743 7392 1
1743 7391 1
1743 7390 1
1743 7389 1
1743 7388 1
1743 7387 1
1743 7386 1
1743 7385 1
1743 7384 1
1743 7383 1
1743 7382 1
1743 7381 1
1743 7380 1
1743 7379 1
1743 7378 1
1743 7377 1
1743 7376 1
1743 7375 1
1743 7374 1
1743 7373 1
1743 7372 1
1743 7371 1
1743 7370 1
1743 7369 1
1743 7368 1
1743 7367 1
1743 7366 1
1743 7365 1
1743 7364 1
1743 7363 1
1743 7362 1
1743 7361 1
1743 7360 1
1743 7359 1
1743 7358 1
1743 7357 1
1743 7356 1
1743 7355 1
1743 7354 1
1743 7353 1
1743 7352 1
1743 7351 1
1743 7350 1
1743 7349 1
1743 7348 1
1743 7347 1
1743 7346 1
1743 7345 1
1743 7344 1
1743 7343 1
1743 7342 1
1743 7341 1
1743 7340 1
1743 7339 1
1743 7338 1
1743 7337 1
1743 7336 1
1743 7335 1
1743 7334 1
1743 7333 1
1743 7332 1
1743 7331 1
1743 7330 1
1743 7329 1
1743 7328 1
1743 7327 1
1743 7326 1
1743 7325 1
1743 7324 1
1743 7323 1
1743 7322 1
1743 7321 1
1743 7320 1
1743 7319 1
1743 7318 1
1743 7317 1
1743 7316 1
1743 7315 1
1743 7314 1
1743 7313 1
1743 7312 1
1743 7311 1
1743 7310 1
1743 7309 1
1743 7308 1
1743 7307 1
1743 7306 1
1743 7305 1
1743 7304 1
1743 7303 1
1743 7302 1
1743 7301 1
1743 7300 1
1743 7299 1
1743 7298 1
1743 7297 1
1743 7296 1
1743 7295 1
1743 7294 1
1743 7293 1
1743 7292 1
1743 7291 1
1743 7290 1
1743 7289 1
1743 7288 1
1743 7287 1
1743 7286 1
1743 7285 1
1743 7284 1
1743 7283 1
1743 7282 1
1743 7281 1
1743 7280 1
1743 7279 1
1743 7278 1
1743 7277 1
1743 7276 1
1743 7275 1
1743 7274 1
1743 7273 1
1743 7272 1
1743 7271 1
1743 7270 1
1743 7269 1
1743 7268 1
1743 7267 1
1743 7266 1
1743 7265 1
1743 7264 1
1743 7263 1
1743 7262 1
1743 7261 1
1743 7260 1
1743 7259 1
1743 7258 1
1743 7257 1
1743 7256 1
1743 7255 1
1743 7254 1
1743 7253 1
1743 7252 1
1743 7251 1
1743 7250 1
1743 7249 1
1743 7248 1
1743 7247 1
1743 7246 1
1743 7245 1
1743 7244 1
1743 7243 1
1743 7242 1
1743 7241 1
1743 7240 1
1743 7239 1
1743 7238 1
1743 7237 1
1743 7236 1
1743 7235 1
1743 7234 1
1743 7233 1
1743 7232 1
1743 7231 1
1743 7230 1
1743 7229 1
1743 7228 1
1743 7227 1
1743 7226 1
1743 7225 1
1743 7224 1
1743 7223 1
1743 7222 1
1743 7221 1
1743 7220 1
1743 7219 1
1743 7218 1
1743 7217 1
1743 7216 1
1743 7215 1
1743 7214 1
1743 7213 1
1743 7212 1
1743 7211 1
1743 7210 1
1743 7209 1
1743 7208 1
1743 7207 1
1743 7206 1
1743 7205 1
1743 7204 1
1743 7203 1
1743 7202 1
1743 7201 1
1743 7200 1
1743 7199 1
1743 7198 1
1743 7197 1
1743 7196 1
1743 7195 1
1743 7194 1
1743 7193 1
1743 7192 1
1743 7191 1
1743 7190 1
1743 7189 1
1743 7188 1
1743 7187 1
1743 7186 1
1743 7185 1
1743 7184 1
1743 7183 1
1743 7182 1
1743 7181 1
1743 7180 1
1743 7179 1
1743 7178 1
1743 7177 1
1743 7176 1
1743 7175 1
1743 7174 1
1743 7173 1
1743 7172 1
1743 7171 1
1743 7170 1
1743 7169 1
1743 7168 1
1743 7167 1
1743 7166 1
1743 7165 1
1743 7164 1
1743 7163 1
1743 7162 1
1743 7161 1
1743 7160 1
1743 7159 1
1743 7158 1
1743 7157 1
1743 7156 1
1743 7155 1
1743 7154 1
1743 7153 1
1743 7152 1
1743 7151 1
1743 7150 1
1743 7149 1
1743 7148 1
1743 7147 1
1743 7146 1
1743 7145 1
1743 7144 1
1743 7143 1
1743 7142 1
1743 7141 1
1743 7140 1
1743 7139 1
1743 7138 1
1743 7137 1
1743 7136 1
1743 7135 1
1743 7134 1
1743 7133 1
1743 7132 1
1743 7131 1
1743 7130 1
1743 7129 1
1743 7128 1
1743 7127 1
1743 7126 1
1743 7125 1
1743 7124 1
1743 7123 1
1743 7122 1
1743 7121 1
1743 7120 1
1743 7119 1
1743 7118 1
1743 7117 1
1743 7116 1
1743 7115 1
1743 7114 1
1743 7113 1
1743 7112 1
1743 7111 1
1743 7110 1
1743 7109 1
1743 7108 1
1743 7107 1
1743 7106 1
1743 7105 1
1743 7104 1
1743 7103 1
1743 7102 1
1743 7101 1
1743 7100 1
1743 7099 1
1743 7098 1
1743 7097 1
1743 7096 1
1743 7095 1
1743 7094 1
1743 7093 1
1743 7092 1
1743 7091 1
1743 7090 1
1743 7089 1
1743 7088 1
1743 7087 1
1743 7086 1
1743 7085 1
1743 7084 1
1743 7083 1
1743 7082 1
1743 7081 1
1743 7080 1
1743 7079 1
1743 7078 1
1743 7077 1
1743 7076 1
1743 7075 1
1743 7074 1
1743 7073 1
1743 7072 1
1743 7071 1
1743 7070 1
1743 7069 1
1743 7068 1
1743 7067 1
1743 7066 1
1743 7065 1
1743 7064 1
1743 7063 1
1743 7062 1
1743 7061 1
1743 7060 1
1743 7059 1
1743 7058 1
1743 7057 1
1743 7056 1
1743 7055 1
1743 7054 1
1743 7053 1
1743 7052 1
1743 7051 1
1743 7050 1
1743 7049 1
1743 7048 1
1743 7047 1
1743 7046 1
1743 7045 1
1743 7044 1
1743 7043 1
1743 7042 1
1743 7041 1
1743 7040 1
1743 7039 1
1743 7038 1
1743 7037 1
1743 7036 1
1743 7035 1
1743 7034 1
1743 7033 1
1743 7032 1
1743 7031 1
1743 7030 1
1743 7029 1
1743 7028 1
1743 7027 1
1743 7026 1
1743 7025 1
1743 7024 1
1743 7023 1
1743 7022 1
1743 7021 1
1743 7020 1
1743 7019 1
1743 7018 1
1743 7017 1
1743 7016 1
1743 7015 1
1743 7014 1
1743 7013 1
1743 7012 1
1743 7011 1
1743 7010 1
1743 7009 1
1743 7008 1
1743 7007 1
1743 7006 1
1743 7005 1
1743 7004 1
1743 7003 1
1743 7002 1
1743 7001 1
1743 7000 1
1743 6999 1
1743 6998 1
1743 6997 1
1743 6996 1
1743 6995 1
1743 6994 1
1743 6993 1
1743 6992 1
1743 6991 1
1743 6990 1
1743 6989 1
1743 6988 1
1743 6987 1
1743 6986 1
1743 6985 1
1743 6984 1
1743 6983 1
1743 6982 1
1743 6981 1
1743 6980 1
1743 6979 1
1743 6978 1
1743 6977 1
1743 6976 1
1743 6975 1
1743 6974 1
1743 6973 1
1743 6972 1
1743 6971 1
1743 6970 1
1743 6969 1
1743 6968 1
1743 6967 1
1743 6966 1
1743 6965 1
1743 6964 1
1743 6963 1
1743 6962 1
1743 6961 1
1743 6960 1
1743 6959 1
1743 6958 1
1743 6957 1
1743 6956 1
1743 6955 1
1743 6954 1
1743 6953 1
1743 6952 1
1743 6951 1
1743 6950 1
1743 6949 1
1743 6948 1
1743 6947 1
1743 6946 1
1743 6945 1
1743 6944 1
1743 6943 1
1743 6942 1
1743 6941 1
1743 6940 1
1743 6939 1
1743 6938 1
1743 6937 1
1743 6936 1
1743 6935 1
1743 6934 1
1743 6933 1
1743 6932 1
1743 6931 1
1743 6930 1
1743 6929 1
1743 6928 1
1743 6927 1
1743 6926 1
1743 6925 1
1743 6924 1
1743 6923 1
1743 6922 1
1743 6921 1
1743 6920 1
1743 6919 1
1743 6918 1
1743 6917 1
1743 6916 1
1743 6915 1
1743 6914 1
1743 6913 1
1743 6912 1
1743 6911 1
1743 6910 1
1743 6909 1
1743 6908 1
1743 6907 1
1743 6906 1
1743 6905 1
1743 6904 1
1743 6903 1
1743 6902 1
1743 6901 1
1743 6900 1
1743 6899 1
1743 6898 1
1743 6897 1
1743 6896 1
1743 6895 1
1743 6894 1
1743 6893 1
1743 6892 1
1743 6891 1
1743 6890 1
1743 6889 1
1743 6888 1
1743 6887 1
1743 6886 1
1743 6885 1
1743 6884 1
1743 6883 1
1743 6882 1
1743 6881 1
1743 6880 1
1743 6879 1
1743 6878 1
1743 6877 1
1743 6876 1
1743 6875 1
1743 6874 1
1743 6873 1
1743 6872 1
1743 6871 1
1743 6870 1
1743 6869 1
1743 6868 1
1743 6867 1
1743 6866 1
1743 6865 1
1743 6864 1
1743 6863 1
1743 6862 1
1743 6861 1
1743 6860 1
1743 6859 1
1743 6858 1
1743 6857 1
1743 6856 1
1743 6855 1
1743 6854 1
1743 6853 1
1743 6852 1
1743 6851 1
1743 6850 1
1743 6849 1
1743 6848 1
1743 6847 1
1743 6846 1
1743 6845 1
1743 6844 1
1743 6843 1
1743 6842 1
1743 6841 1
1743 6840 1
1743 6839 1
1743 6838 1
1743 6837 1
1743 6836 1
1743 6835 1
1743 6834 1
1743 6833 1
1743 6832 1
1743 6831 1
1743 6830 1
1743 6829 1
1743 6828 1
1743 6827 1
1743 6826 1
1743 6825 1
1743 6824 1
1743 6823 1
1743 6822 1
1743 6821 1
1743 6820 1
1743 6819 1
1743 6818 1
1743 6817 1
1743 6816 1
1743 6815 1
1743 6814 1
1743 6813 1
1743 6812 1
1743 6811 1
1743 6810 1
1743 6809 1
1743 6808 1
1743 6807 1
1743 6806 1
1743 6805 1
1743 6804 1
1743 6803 1
1743 6802 1
1743 6801 1
1743 6800 1
1743 6799 1
1743 6798 1
1743 6797 1
1743 6796 1
1743 6795 1
1743 6794 1
1743 6793 1
1743 6792 1
1743 6791 1
1743 6790 1
1743 6789 1
1743 6788 1
1743 6787 1
1743 6786 1
1743 6785 1
1743 6784 1
1743 6783 1
1743 6782 1
1743 6781 1
1743 6780 1
1743 6779 1
1743 6778 1
1743 6777 1
1743 6776 1
1743 6775 1
1743 6774 1
1743 6773 1
1743 6772 1
1743 6771 1
1743 6770 1
1743 6769 1
1743 6768 1
1743 6767 1
1743 6766 1
1743 6765 1
1743 6764 1
1743 6763 1
1743 6762 1
1743 6761 1
1743 6760 1
1743 6759 1
1743 6758 1
1743 6757 1
1743 6756 1
1743 6755 1
1743 6754 1
1743 6753 1
1743 6752 1
1743 6751 1
1743 6750 1
1743 6749 1
1743 6748 1
1743 6747 1
1743 6746 1
1743 6745 1
1743 6744 1
1743 6743 1
1743 6742 1
1743 6741 1
1743 6740 1
1743 6739 1
1743 6738 1
1743 6737 1
1743 6736 1
1743 6735 1
1743 6734 1
1743 6733 1
1743 6732 1
1743 6731 1
1743 6730 1
1743 6729 1
1743 6728 1
1743 6727 1
1743 6726 1
1743 6725 1
1743 6724 1
1743 6723 1
1743 6722 1
1743 6721 1
1743 6720 1
1743 6719 1
1743 6718 1
1743 6717 1
1743 6716 1
1743 6715 1
1743 6714 1
1743 6713 1
1743 6712 1
1743 6711 1
1743 6710 1
1743 6709 1
1743 6708 1
1743 6707 1
1743 6706 1
1743 6705 1
1743 6704 1
1743 6703 1
1743 6702 1
1743 6701 1
1743 6700 1
1743 6699 1
1743 6698 1
1743 6697 1
1743 6696 1
1743 6695 1
1743 6694 1
1743 6693 1
1743 6692 1
1743 6691 1
1743 6690 1
1743 6689 1
1743 6688 1
1743 6687 1
1743 6686 1
1743 6685 1
1743 6684 1
1743 6683 1
1743 6682 1
1743 6681 1
1743 6680 1
1743 6679 1
1743 6678 1
1743 6677 1
1743 6676 1
1743 6675 1
1743 6674 1
1743 6673 1
1743 6672 1
1743 6671 1
1743 6670 1
1743 6669 1
1743 6668 1
1743 6667 1
1743 6666 1
1743 6665 1
1743 6664 1
1743 6663 1
1743 6662 1
1743 6661 1
1743 6660 1
1743 6659 1
1743 6658 1
1743 6657 1
1743 6656 1
1743 6655 1
1743 6654 1
1743 6653 1
1743 6652 1
1743 6651 1
1743 6650 1
1743 6649 1
1743 6648 1
1743 6647 1
1743 6646 1
1743 6645 1
1743 6644 1
1743 6643 1
1743 6642 1
1743 6641 1
1743 6640 1
1743 6639 1
1743 6638 1
1743 6637 1
1743 6636 1
1743 6635 1
1743 6634 1
1743 6633 1
1743 6632 1
1743 6631 1
1743 6630 1
1743 6629 1
1743 6628 1
1743 6627 1
1743 6626 1
1743 6625 1
1743 6624 1
1743 6623 1
1743 6622 1
1743 6621 1
1743 6620 1
1743 6619 1
1743 6618 1
1743 6617 1
1743 6616 1
1743 6615 1
1743 6614 1
1743 6613 1
1743 6612 1
1743 6611 1
1743 6610 1
1743 6609 1
1743 6608 1
1743 6607 1
1743 6606 1
1743 6605 1
1743 6604 1
1743 6603 1
1743 6602 1
1743 6601 1
1743 6600 1
1743 6599 1
1743 6598 1
1743 6597 1
1743 6596 1
1743 6595 1
1743 6594 1
1743 6593 1
1743 6592 1
1743 6591 1
1743 6590 1
1743 6589 1
1743 6588 1
1743 6587 1
1743 6586 1
1743 6585 1
1743 6584 1
1743 6583 1
1743 6582 1
1743 6581 1
1743 6580 1
1743 6579 1
1743 6578 1
1743 6577 1
1743 6576 1
1743 6575 1
1743 6574 1
1743 6573 1
1743 6572 1
1743 6571 1
1743 6570 1
1743 6569 1
1743 6568 1
1743 6567 1
1743 6566 1
1743 6565 1
1743 6564 1
1743 6563 1
1743 6562 1
1743 6561 1
1743 6560 1
1743 6559 1
1743 6558 1
1743 6557 1
1743 6556 1
1743 6555 1
1743 6554 1
1743 6553 1
1743 6552 1
1743 6551 1
1743 6550 1
1743 6549 1
1743 6548 1
1743 6547 1
1743 6546 1
1743 6545 1
1743 6544 1
1743 6543 1
1743 6542 1
1743 6541 1
1743 6540 1
1743 6539 1
1743 6538 1
1743 6537 1
1743 6536 1
1743 6535 1
1743 6534 1
1743 6533 1
1743 6532 1
1743 6531 1
1743 6530 1
1743 6529 1
1743 6528 1
1743 6527 1
1743 6526 1
1743 6525 1
1743 6524 1
1743 6523 1
1743 6522 1
1743 6521 1
1743 6520 1
1743 6519 1
1743 6518 1
1743 6517 1
1743 6516 1
1743 6515 1
1743 6514 1
1743 6513 1
1743 6512 1
1743 6511 1
1743 6510 1
1743 6509 1
1743 6508 1
1743 6507 1
1743 6506 1
1743 6505 1
1743 6504 1
1743 6503 1
1743 6502 1
1743 6501 1
1743 6500 1
1743 6499 1
1743 6498 1
1743 6497 1
1743 6496 1
1743 6495 1
1743 6494 1
1743 6493 1
1743 6492 1
1743 6491 1
1743 6490 1
1743 6489 1
1743 6488 1
1743 6487 1
1743 6486 1
1743 6485 1
1743 6484 1
1743 6483 1
1743 6482 1
1743 6481 1
1743 6480 1
1743 6479 1
1743 6478 1
1743 6477 1
1743 6476 1
1743 6475 1
1743 6474 1
1743 6473 1
1743 6472 1
1743 6471 1
1743 6470 1
1743 6469 1
1743 6468 1
1743 6467 1
1743 6466 1
1743 6465 1
1743 6464 1
1743 6463 1
1743 6462 1
1743 6461 1
1743 6460 1
1743 6459 1
1743 6458 1
1743 6457 1
1743 6456 1
1743 6455 1
1743 6454 1
1743 6453 1
1743 6452 1
1743 6451 1
1743 6450 1
1743 6449 1
1743 6448 1
1743 6447 1
1743 6446 1
1743 6445 1
1743 6444 1
1743 6443 1
1743 6442 1
1743 6441 1
1743 6440 1
1743 6439 1
1743 6438 1
1743 6437 1
1743 6436 1
1743 6435 1
1743 6434 1
1743 6433 1
1743 6432 1
1743 6431 1
1743 6430 1
1743 6429 1
1743 6428 1
1743 6427 1
1743 6426 1
1743 6425 1
1743 6424 1
1743 6423 1
1743 6422 1
1743 6421 1
1743 6420 1
1743 6419 1
1743 6418 1
1743 6417 1
1743 6416 1
1743 6415 1
1743 6414 1
1743 6413 1
1743 6412 1
1743 6411 1
1743 6410 1
1743 6409 1
1743 6408 1
1743 6407 1
1743 6406 1
1743 6405 1
1743 6404 1
1743 6403 1
1743 6402 1
1743 6401 1
1743 6400 1
1743 6399 1
1743 6398 1
1743 6397 1
1743 6396 1
1743 6395 1
1743 6394 1
1743 6393 1
1743 6392 1
1743 6391 1
1743 6390 1
1743 6389 1
1743 6388 1
1743 6387 1
1743 6386 1
1743 6385 1
1743 6384 1
1743 6383 1
1743 6382 1
1743 6381 1
1743 6380 1
1743 6379 1
1743 6378 1
1743 6377 1
1743 6376 1
1743 6375 1
1743 6374 1
1743 6373 1
1743 6372 1
1743 6371 1
1743 6370 1
1743 6369 1
1743 6368 1
1743 6367 1
1743 6366 1
1743 6365 1
1743 6364 1
1743 6363 1
1743 6362 1
1743 6361 1
1743 6360 1
1743 6359 1
1743 6358 1
1743 6357 1
1743 6356 1
1743 6355 1
1743 6354 1
1743 6353 1
1743 6352 1
1743 6351 1
1743 6350 1
1743 6349 1
1743 6348 1
1743 6347 1
1743 6346 1
1743 6345 1
1743 6344 1
1743 6343 1
1743 6342 1
1743 6341 1
1743 6340 1
1743 6339 1
1743 6338 1
1743 6337 1
1743 6336 1
1743 6335 1
1743 6334 1
1743 6333 1
1743 6332 1
1743 6331 1
1743 6330 1
1743 6329 1
1743 6328 1
1743 6327 1
1743 6326 1
1743 6325 1
1743 6324 1
1743 6323 1
1743 6322 1
1743 6321 1
1743 6320 1
1743 6319 1
1743 6318 1
1743 6317 1
1743 6316 1
1743 6315 1
1743 6314 1
1743 6313 1
1743 6312 1
1743 6311 1
1743 6310 1
1743 6309 1
1743 6308 1
1743 6307 1
1743 6306 1
1743 6305 1
1743 6304 1
1743 6303 1
1743 6302 1
1743 6301 1
1743 6300 1
1743 6299 1
1743 6298 1
1743 6297 1
1743 6296 1
1743 6295 1
1743 6294 1
1743 6293 1
1743 6292 1
1743 6291 1
1743 6290 1
1743 6289 1
1743 6288 1
1743 6287 1
1743 6286 1
1743 6285 1
1743 6284 1
1743 6283 1
1743 6282 1
1743 6281 1
1743 6280 1
1743 6279 1
1743 6278 1
1743 6277 1
1743 6276 1
1743 6275 1
1743 6274 1
1743 6273 1
1743 6272 1
1743 6271 1
1743 6270 1
1743 6269 1
1743 6268 1
1743 6267 1
1743 6266 1
1743 6265 1
1743 6264 1
1743 6263 1
1743 6262 1
1743 6261 1
1743 6260 1
1743 6259 1
1743 6258 1
1743 6257 1
1743 6256 1
1743 6255 1
1743 6254 1
1743 6253 1
1743 6252 1
1743 6251 1
1743 6250 1
1743 6249 1
1743 6248 1
1743 6247 1
1743 6246 1
1743 6245 1
1743 6244 1
1743 6243 1
1743 6242 1
1743 6241 1
1743 6240 1
1743 6239 1
1743 6238 1
1743 6237 1
1743 6236 1
1743 6235 1
1743 6234 1
1743 6233 1
1743 6232 1
1743 6231 1
1743 6230 1
1743 6229 1
1743 6228 1
1743 6227 1
1743 6226 1
1743 6225 1
1743 6224 1
1743 6223 1
1743 6222 1
1743 6221 1
1743 6220 1
1743 6219 1
1743 6218 1
1743 6217 1
1743 6216 1
1743 6215 1
1743 6214 1
1743 6213 1
1743 6212 1
1743 6211 1
1743 6210 1
1743 6209 1
1743 6208 1
1743 6207 1
1743 6206 1
1743 6205 1
1743 6204 1
1743 6203 1
1743 6202 1
1743 6201 1
1743 6200 1
1743 6199 1
1743 6198 1
1743 6197 1
1743 6196 1
1743 6195 1
1743 6194 1
1743 6193 1
1743 6192 1
1743 6191 1
1743 6190 1
1743 6189 1
1743 6188 1
1743 6187 1
1743 6186 1
1743 6185 1
1743 6184 1
1743 6183 1
1743 6182 1
1743 6181 1
1743 6180 1
1743 6179 1
1743 6178 1
1743 6177 1
1743 6176 1
1743 6175 1
1743 6174 1
1743 6173 1
1743 6172 1
1743 6171 1
1743 6170 1
1743 6169 1
1743 6168 1
1743 6167 1
1743 6166 1
1743 6165 1
1743 6164 1
1743 6163 1
1743 6162 1
1743 6161 1
1743 6160 1
1743 6159 1
1743 6158 1
1743 6157 1
1743 6156 1
1743 6155 1
1743 6154 1
1743 6153 1
1743 6152 1
1743 6151 1
1743 6150 1
1743 6149 1
1743 6148 1
1743 6147 1
1743 6146 1
1743 6145 1
1743 6144 1
1743 6143 1
1743 6142 1
1743 6141 1
1743 6140 1
1743 6139 1
1743 6138 1
1743 6137 1
1743 6136 1
1743 6135 1
1743 6134 1
1743 6133 1
1743 6132 1
1743 6131 1
1743 6130 1
1743 6129 1
1743 6128 1
1743 6127 1
1743 6126 1
1743 6125 1
1743 6124 1
1743 6123 1
1743 6122 1
1743 6121 1
1743 6120 1
1743 6119 1
1743 6118 1
1743 6117 1
1743 6116 1
1743 6115 1
1743 6114 1
1743 6113 1
1743 6112 1
1743 6111 1
1743 6110 1
1743 6109 1
1743 6108 1
1743 6107 1
1743 6106 1
1743 6105 1
1743 6104 1
1743 6103 1
1743 6102 1
1743 6101 1
1743 6100 1
1743 6099 1
1743 6098 1
1743 6097 1
1743 6096 1
1743 6095 1
1743 6094 1
1743 6093 1
1743 6092 1
1743 6091 1
1743 6090 1
1743 6089 1
1743 6088 1
1743 6087 1
1743 6086 1
1743 6085 1
1743 6084 1
1743 6083 1
1743 6082 1
1743 6081 1
1743 6080 1
1743 6079 1
1743 6078 1
1743 6077 1
1743 6076 1
1743 6075 1
1743 6074 1
1743 6073 1
1743 6072 1
1743 6071 1
1743 6070 1
1743 6069 1
1743 6068 1
1743 6067 1
1743 6066 1
1743 6065 1
1743 6064 1
1743 6063 1
1743 6062 1
1743 6061 1
1743 6060 1
1743 6059 1
1743 6058 1
1743 6057 1
1743 6056 1
1743 6055 1
1743 6054 1
1743 6053 1
1743 6052 1
1743 6051 1
1743 6050 1
1743 6049 1
1743 6048 1
1743 6047 1
1743 6046 1
1743 6045 1
1743 6044 1
1743 6043 1
1743 6042 1
1743 6041 1
1743 6040 1
1743 6039 1
1743 6038 1
1743 6037 1
1743 6036 1
1743 6035 1
1743 6034 1
1743 6033 1
1743 6032 1
1743 6031 1
1743 6030 1
1743 6029 1
1743 6028 1
1743 6027 1
1743 6026 1
1743 6025 1
1743 6024 1
1743 6023 1
1743 6022 1
1743 6021 1
1743 6020 1
1743 6019 1
1743 6018 1
1743 6017 1
1743 6016 1
1743 6015 1
1743 6014 1
1743 6013 1
1743 6012 1
1743 6011 1
1743 6010 1
1743 6009 1
1743 6008 1
1743 6007 1
1743 6006 1
1743 6005 1
1743 6004 1
1743 6003 1
1743 6002 1
1743 6001 1
1743 6000 1
1743 5999 1
1743 5998 1
1743 5997 1
1743 5996 1
1743 5995 1
1743 5994 1
1743 5993 1
1743 5992 1
1743 5991 1
1743 5990 1
1743 5989 1
1743 5988 1
1743 5987 1
1743 5986 1
1743 5985 1
1743 5984 1
1743 5983 1
1743 5982 1
1743 5981 1
1743 5980 1
1743 5979 1
1743 5978 1
1743 5977 1
1743 5976 1
1743 5975 1
1743 5974 1
1743 5973 1
1743 5972 1
1743 5971 1
1743 5970 1
1743 5969 1
1743 5968 1
1743 5967 1
1743 5966 1
1743 5965 1
1743 5964 1
1743 5963 1
1743 5962 1
1743 5961 1
1743 5960 1
1743 5959 1
1743 5958 1
1743 5957 1
1743 5956 1
1743 5955 1
1743 5954 1
1743 5953 1
1743 5952 1
1743 5951 1
1743 5950 1
1743 5949 1
1743 5948 1
1743 5947 1
1743 5946 1
1743 5945 1
1743 5944 1
1743 5943 1
1743 5942 1
1743 5941 1
1743 5940 1
1743 5939 1
1743 5938 1
1743 5937 1
1743 5936 1
1743 5935 1
1743 5934 1
1743 5933 1
1743 5932 1
1743 5931 1
1743 5930 1
1743 5929 1
1743 5928 1
1743 5927 1
1743 5926 1
1743 5925 1
1743 5924 1
1743 5923 1
1743 5922 1
1743 5921 1
1743 5920 1
1743 5919 1
1743 5918 1
1743 5917 1
1743 5916 1
1743 5915 1
1743 5914 1
1743 5913 1
1743 5912 1
1743 5911 1
1743 5910 1
1743 5909 1
1743 5908 1
1743 5907 1
1743 5906 1
1743 5905 1
1743 5904 1
1743 5903 1
1743 5902 1
1743 5901 1
1743 5900 1
1743 5899 1
1743 5898 1
1743 5897 1
1743 5896 1
1743 5895 1
1743 5894 1
1743 5893 1
1743 5892 1
1743 5891 1
1743 5890 1
1743 5889 1
1743 5888 1
1743 5887 1
1743 5886 1
1743 5885 1
1743 5884 1
1743 5883 1
1743 5882 1
1743 5881 1
1743 5880 1
1743 5879 1
1743 5878 1
1743 5877 1
1743 5876 1
1743 5875 1
1743 5874 1
1743 5873 1
1743 5872 1
1743 5871 1
1743 5870 1
1743 5869 1
1743 5868 1
1743 5867 1
1743 5866 1
1743 5865 1
1743 5864 1
1743 5863 1
1743 5862 1
1743 5861 1
1743 5860 1
1743 5859 1
1743 5858 1
1743 5857 1
1743 5856 1
1743 5855 1
1743 5854 1
1743 5853 1
1743 5852 1
1743 5851 1
1743 5850 1
1743 5849 1
1743 5848 1
1743 5847 1
1743 5846 1
1743 5845 1
1743 5844 1
1743 5843 1
1743 5842 1
1743 5841 1
1743 5840 1
1743 5839 1
1743 5838 1
1743 5837 1
1743 5836 1
1743 5835 1
1743 5834 1
1743 5833 1
1743 5832 1
1743 5831 1
1743 5830 1
1743 5829 1
1743 5828 1
1743 5827 1
1743 5826 1
1743 5825 1
1743 5824 1
1743 5823 1
1743 5822 1
1743 5821 1
1743 5820 1
1743 5819 1
1743 5818 1
1743 5817 1
1743 5816 1
1743 5815 1
1743 5814 1
1743 5813 1
1743 5812 1
1743 5811 1
1743 5810 1
1743 5809 1
1743 5808 1
1743 5807 1
1743 5806 1
1743 5805 1
1743 5804 1
1743 5803 1
1743 5802 1
1743 5801 1
1743 5800 1
1743 5799 1
1743 5798 1
1743 5797 1
1743 5796 1
1743 5795 1
1743 5794 1
1743 5793 1
1743 5792 1
1743 5791 1
1743 5790 1
1743 5789 1
1743 5788 1
1743 5787 1
1743 5786 1
1743 5785 1
1743 5784 1
1743 5783 1
1743 5782 1
1743 5781 1
1743 5780 1
1743 5779 1
1743 5778 1
1743 5777 1
1743 5776 1
1743 5775 1
1743 5774 1
1743 5773 1
1743 5772 1
1743 5771 1
1743 5770 1
1743 5769 1
1743 5768 1
1743 5767 1
1743 5766 1
1743 5765 1
1743 5764 1
1743 5763 1
1743 5762 1
1743 5761 1
1743 5760 1
1743 5759 1
1743 5758 1
1743 5757 1
1743 5756 1
1743 5755 1
1743 5754 1
1743 5753 1
1743 5752 1
1743 5751 1
1743 5750 1
1743 5749 1
1743 5748 1
1743 5747 1
1743 5746 1
1743 5745 1
1743 5744 1
1743 5743 1
1743 5742 1
1743 5741 1
1743 5740 1
1743 5739 1
1743 5738 1
1743 5737 1
1743 5736 1
1743 5735 1
1743 5734 1
1743 5733 1
1743 5732 1
1743 5731 1
1743 5730 1
1743 5729 1
1743 5728 1
1743 5727 1
1743 5726 1
1743 5725 1
1743 5724 1
1743 5723 1
1743 5722 1
1743 5721 1
1743 5720 1
1743 5719 1
1743 5718 1
1743 5717 1
1743 5716 1
1743 5715 1
1743 5714 1
1743 5713 1
1743 5712 1
1743 5711 1
1743 5710 1
1743 5709 1
1743 5708 1
1743 5707 1
1743 5706 1
1743 5705 1
1743 5704 1
1743 5703 1
1743 5702 1
1743 5701 1
1743 5700 1
1743 5699 1
1743 5698 1
1743 5697 1
1743 5696 1
1743 5695 1
1743 5694 1
1743 5693 1
1743 5692 1
1743 5691 1
1743 5690 1
1743 5689 1
1743 5688 1
1743 5687 1
1743 5686 1
1743 5685 1
1743 5684 1
1743 5683 1
1743 5682 1
1743 5681 1
1743 5680 1
1743 5679 1
1743 5678 1
1743 5677 1
1743 5676 1
1743 5675 1
1743 5674 1
1743 5673 1
1743 5672 1
1743 5671 1
1743 5670 1
1743 5669 1
1743 5668 1
1743 5667 1
1743 5666 1
1743 5665 1
1743 5664 1
1743 5663 1
1743 5662 1
1743 5661 1
1743 5660 1
1743 5659 1
1743 5658 1
1743 5657 1
1743 5656 1
1743 5655 1
1743 5654 1
1743 5653 1
1743 5652 1
1743 5651 1
1743 5650 1
1743 5649 1
1743 5648 1
1743 5647 1
1743 5646 1
1743 5645 1
1743 5644 1
1743 5643 1
1743 5642 1
1743 5641 1
1743 5640 1
1743 5639 1
1743 5638 1
1743 5637 1
1743 5636 1
1743 5635 1
1743 5634 1
1743 5633 1
1743 5632 1
1743 5631 1
1743 5630 1
1743 5629 1
1743 5628 1
1743 5627 1
1743 5626 1
1743 5625 1
1743 5624 1
1743 5623 1
1743 5622 1
1743 5621 1
1743 5620 1
1743 5619 1
1743 5618 1
1743 5617 1
1743 5616 1
1743 5615 1
1743 5614 1
1743 5613 1
1743 5612 1
1743 5611 1
1743 5610 1
1743 5609 1
1743 5608 1
1743 5607 1
1743 5606 1
1743 5605 1
1743 5604 1
1743 5603 1
1743 5602 1
1743 5601 1
1743 5600 1
1743 5599 1
1743 5598 1
1743 5597 1
1743 5596 1
1743 5595 1
1743 5594 1
1743 5593 1
1743 5592 1
1743 5591 1
1743 5590 1
1743 5589 1
1743 5588 1
1743 5587 1
1743 5586 1
1743 5585 1
1743 5584 1
1743 5583 1
1743 5582 1
1743 5581 1
1743 5580 1
1743 5579 1
1743 5578 1
1743 5577 1
1743 5576 1
1743 5575 1
1743 5574 1
1743 5573 1
1743 5572 1
1743 5571 1
1743 5570 1
1743 5569 1
1743 5568 1
1743 5567 1
1743 5566 1
1743 5565 1
1743 5564 1
1743 5563 1
1743 5562 1
1743 5561 1
1743 5560 1
1743 5559 1
1743 5558 1
1743 5557 1
1743 5556 1
1743 5555 1
1743 5554 1
1743 5553 1
1743 5552 1
1743 5551 1
1743 5550 1
1743 5549 1
1743 5548 1
1743 5547 1
1743 5546 1
1743 5545 1
1743 5544 1
1743 5543 1
1743 5542 1
1743 5541 1
1743 5540 1
1743 5539 1
1743 5538 1
1743 5537 1
1743 5536 1
1743 5535 1
1743 5534 1
1743 5533 1
1743 5532 1
1743 5531 1
1743 5530 1
1743 5529 1
1743 5528 1
1743 5527 1
1743 5526 1
1743 5525 1
1743 5524 1
1743 5523 1
1743 5522 1
1743 5521 1
1743 5520 1
1743 5519 1
1743 5518 1
1743 5517 1
1743 5516 1
1743 5515 1
1743 5514 1
1743 5513 1
1743 5512 1
1743 5511 1
1743 5510 1
1743 5509 1
1743 5508 1
1743 5507 1
1743 5506 1
1743 5505 1
1743 5504 1
1743 5503 1
1743 5502 1
1743 5501 1
1743 5500 1
1743 5499 1
1743 5498 1
1743 5497 1
1743 5496 1
1743 5495 1
1743 5494 1
1743 5493 1
1743 5492 1
1743 5491 1
1743 5490 1
1743 5489 1
1743 5488 1
1743 5487 1
1743 5486 1
1743 5485 1
1743 5484 1
1743 5483 1
1743 5482 1
1743 5481 1
1743 5480 1
1743 5479 1
1743 5478 1
1743 5477 1
1743 5476 1
1743 5475 1
1743 5474 1
1743 5473 1
1743 5472 1
1743 5471 1
1743 5470 1
1743 5469 1
1743 5468 1
1743 5467 1
1743 5466 1
1743 5465 1
1743 5464 1
1743 5463 1
1743 5462 1
1743 5461 1
1743 5460 1
1743 5459 1
1743 5458 1
1743 5457 1
1743 5456 1
1743 5455 1
1743 5454 1
1743 5453 1
1743 5452 1
1743 5451 1
1743 5450 1
1743 5449 1
1743 5448 1
1743 5447 1
1743 5446 1
1743 5445 1
1743 5444 1
1743 5443 1
1743 5442 1
1743 5441 1
1743 5440 1
1743 5439 1
1743 5438 1
1743 5437 1
1743 5436 1
1743 5435 1
1743 5434 1
1743 5433 1
1743 5432 1
1743 5431 1
1743 5430 1
1743 5429 1
1743 5428 1
1743 5427 1
1743 5426 1
1743 5425 1
1743 5424 1
1743 5423 1
1743 5422 1
1743 5421 1
1743 5420 1
1743 5419 1
1743 5418 1
1743 5417 1
1743 5416 1
1743 5415 1
1743 5414 1
1743 5413 1
1743 5412 1
1743 5411 1
1743 5410 1
1743 5409 1
1743 5408 1
1743 5407 1
1743 5406 1
1743 5405 1
1743 5404 1
1743 5403 1
1743 5402 1
1743 5401 1
1743 5400 1
1743 5399 1
1743 5398 1
1743 5397 1
1743 5396 1
1743 5395 1
1743 5394 1
1743 5393 1
1743 5392 1
1743 5391 1
1743 5390 1
1743 5389 1
1743 5388 1
1743 5387 1
1743 5386 1
1743 5385 1
1743 5384 1
1743 5383 1
1743 5382 1
1743 5381 1
1743 5380 1
1743 5379 1
1743 5378 1
1743 5377 1
1743 5376 1
1743 5375 1
1743 5374 1
1743 5373 1
1743 5372 1
1743 5371 1
1743 5370 1
1743 5369 1
1743 5368 1
1743 5367 1
1743 5366 1
1743 5365 1
1743 5364 1
1743 5363 1
1743 5362 1
1743 5361 1
1743 5360 1
1743 5359 1
1743 5358 1
1743 5357 1
1743 5356 1
1743 5355 1
1743 5354 1
1743 5353 1
1743 5352 1
1743 5351 1
1743 5350 1
1743 5349 1
1743 5348 1
1743 5347 1
1743 5346 1
1743 5345 1
1743 5344 1
1743 5343 1
1743 5342 1
1743 5341 1
1743 5340 1
1743 5339 1
1743 5338 1
1743 5337 1
1743 5336 1
1743 5335 1
1743 5334 1
1743 5333 1
1743 5332 1
1743 5331 1
1743 5330 1
1743 5329 1
1743 5328 1
1743 5327 1
1743 5326 1
1743 5325 1
1743 5324 1
1743 5323 1
1743 5322 1
1743 5321 1
1743 5320 1
1743 5319 1
1743 5318 1
1743 5317 1
1743 5316 1
1743 5315 1
1743 5314 1
1743 5313 1
1743 5312 1
1743 5311 1
1743 5310 1
1743 5309 1
1743 5308 1
1743 5307 1
1743 5306 1
1743 5305 1
1743 5304 1
1743 5303 1
1743 5302 1
1743 5301 1
1743 5300 1
1743 5299 1
1743 5298 1
1743 5297 1
1743 5296 1
1743 5295 1
1743 5294 1
1743 5293 1
1743 5292 1
1743 5291 1
1743 5290 1
1743 5289 1
1743 5288 1
1743 5287 1
1743 5286 1
1743 5285 1
1743 5284 1
1743 5283 1
1743 5282 1
1743 5281 1
1743 5280 1
1743 5279 1
1743 5278 1
1743 5277 1
1743 5276 1
1743 5275 1
1743 5274 1
1743 5273 1
1743 5272 1
1743 5271 1
1743 5270 1
1743 5269 1
1743 5268 1
1743 5267 1
1743 5266 1
1743 5265 1
1743 5264 1
1743 5263 1
1743 5262 1
1743 5261 1
1743 5260 1
1743 5259 1
1743 5258 1
1743 5257 1
1743 5256 1
1743 5255 1
1743 5254 1
1743 5253 1
1743 5252 1
1743 5251 1
1743 5250 1
1743 5249 1
1743 5248 1
1743 5247 1
1743 5246 1
1743 5245 1
1743 5244 1
1743 5243 1
1743 5242 1
1743 5241 1
1743 5240 1
1743 5239 1
1743 5238 1
1743 5237 1
1743 5236 1
1743 5235 1
1743 5234 1
1743 5233 1
1743 5232 1
1743 5231 1
1743 5230 1
1743 5229 1
1743 5228 1
1743 5227 1
1743 5226 1
1743 5225 1
1743 5224 1
1743 5223 1
1743 5222 1
1743 5221 1
1743 5220 1
1743 5219 1
1743 5218 1
1743 5217 1
1743 5216 1
1743 5215 1
1743 5214 1
1743 5213 1
1743 5212 1
1743 5211 1
1743 5210 1
1743 5209 1
1743 5208 1
1743 5207 1
1743 5206 1
1743 5205 1
1743 5204 1
1743 5203 1
1743 5202 1
1743 5201 1
1743 5200 1
1743 5199 1
1743 5198 1
1743 5197 1
1743 5196 1
1743 5195 1
1743 5194 1
1743 5193 1
1743 5192 1
1743 5191 1
1743 5190 1
1743 5189 1
1743 5188 1
1743 5187 1
1743 5186 1
1743 5185 1
1743 5184 1
1743 5183 1
1743 5182 1
1743 5181 1
1743 5180 1
1743 5179 1
1743 5178 1
1743 5177 1
1743 5176 1
1743 5175 1
1743 5174 1
1743 5173 1
1743 5172 1
1743 5171 1
1743 5170 1
1743 5169 1
1743 5168 1
1743 5167 1
1743 5166 1
1743 5165 1
1743 5164 1
1743 5163 1
1743 5162 1
1743 5161 1
1743 5160 1
1743 5159 1
1743 5158 1
1743 5157 1
1743 5156 1
1743 5155 1
1743 5154 1
1743 5153 1
1743 5152 1
1743 5151 1
1743 5150 1
1743 5149 1
1743 5148 1
1743 5147 1
1743 5146 1
1743 5145 1
1743 5144 1
1743 5143 1
1743 5142 1
1743 5141 1
1743 5140 1
1743 5139 1
1743 5138 1
1743 5137 1
1743 5136 1
1743 5135 1
1743 5134 1
1743 5133 1
1743 5132 1
1743 5131 1
1743 5130 1
1743 5129 1
1743 5128 1
1743 5127 1
1743 5126 1
1743 5125 1
1743 5124 1
1743 5123 1
1743 5122 1
1743 5121 1
1743 5120 1
1743 5119 1
1743 5118 1
1743 5117 1
1743 5116 1
1743 5115 1
1743 5114 1
1743 5113 1
1743 5112 1
1743 5111 1
1743 5110 1
1743 5109 1
1743 5108 1
1743 5107 1
1743 5106 1
1743 5105 1
1743 5104 1
1743 5103 1
1743 5102 1
1743 5101 1
1743 5100 1
1743 5099 1
1743 5098 1
1743 5097 1
1743 5096 1
1743 5095 1
1743 5094 1
1743 5093 1
1743 5092 1
1743 5091 1
1743 5090 1
1743 5089 1
1743 5088 1
1743 2357 1
1743 2356 1
1743 2355 1
1743 2354 1
1743 2353 1
1743 2352 1
1743 2351 1
1743 2350 1
1743 2349 1
1743 2348 1
1743 2347 1
1743 2346 1
1743 2345 1
1743 2344 1
1743 2343 1
1743 2342 1
1743 2341 1
1743 2340 1
1743 2339 1
1743 2338 1
1743 2337 1
1743 2336 1
1743 2335 1
1743 2334 1
1743 2333 1
1743 2332 1
1743 2331 1
1743 2330 1
1743 2329 1
1743 2328 1
1743 2327 1
1743 2326 1
1743 2325 1
1743 2324 1
1743 2323 1
1743 2322 1
1743 2321 1
1743 2320 1
1743 2319 1
1743 2318 1
1743 2317 1
1743 2316 1
1743 2315 1
1743 2314 1
1743 2313 1
1743 2312 1
1743 2311 1
1743 2310 1
1743 2309 1
1743 2308 1
1743 2307 1
1743 2306 1
1743 2305 1
1743 2304 1
1743 2303 1
1743 2302 1
1743 2301 1
1743 2300 1
1743 2299 1
1743 2298 1
1743 2297 1
1743 2296 1
1743 2295 1
1743 2294 1
1743 2293 1
1743 2292 1
1743 2291 1
1743 2290 1
1743 2289 1
1743 2288 1
1743 2287 1
1743 2286 1
1743 2285 1
1743 2284 1
1743 2283 1
1743 2282 1
1743 2281 1
1743 2280 1
1743 2279 1
1743 2278 1
1743 2277 1
1743 2276 1
1743 2275 1
1743 2274 1
1743 2273 1
1743 2272 1
1743 2271 1
1743 2270 1
1743 2269 1
1743 2268 1
1743 2267 1
1743 2266 1
1743 2265 1
1743 2264 1
1743 2263 1
1743 2262 1
1743 2261 1
1743 2260 1
1743 2259 1
1743 2258 1
1743 2257 1
1743 2256 1
1743 2255 1
1743 2254 1
1743 2253 1
1743 2252 1
1743 2251 1
1743 2250 1
1743 2249 1
1743 2248 1
1743 2247 1
1743 2246 1
1743 2245 1
1743 2244 1
1743 2243 1
1743 2242 1
1743 2241 1
1743 2240 1
1743 2239 1
1743 2238 1
1743 2237 1
1743 2236 1
1743 2235 1
1743 2234 1
1743 2233 1
1743 2232 1
1743 2231 1
1743 2230 1
1743 2229 1
1743 2228 1
1743 2227 1
1743 2226 1
1743 2225 1
1743 2224 1
1743 2223 1
1743 2222 1
1743 2221 1
1743 2220 1
1743 2219 1
1743 2218 1
1743 2217 1
1743 2216 1
1743 2215 1
1743 2214 1
1743 2213 1
1743 2212 1
1743 2211 1
1743 2210 1
1743 2209 1
1743 2208 1
1743 2207 1
1743 2206 1
1743 2205 1
1743 2204 1
1743 2203 1
1743 2202 1
1743 2201 1
1743 2200 1
1743 2199 1
1743 2198 1
1743 2197 1
1743 2196 1
1743 2195 1
1743 2194 1
1743 2193 1
1743 2192 1
1743 2191 1
1743 2190 1
1743 2189 1
1743 2188 1
1743 2187 1
1743 2186 1
1743 2185 1
1743 2184 1
1743 2183 1
1743 2182 1
1743 2181 1
1743 2180 1
1743 2179 1
1743 2178 1
1743 2177 1
1743 2176 1
1743 2175 1
1743 2174 1
1743 2173 1
1743 2172 1
1743 2171 1
1743 2170 1
1743 2169 1
1743 2168 1
1743 2167 1
1743 2166 1
1743 2165 1
1743 2164 1
1743 2163 1
1743 2162 1
1743 2161 1
1743 2160 1
1743 2159 1
1743 2158 1
1743 2157 1
1743 2156 1
1743 2155 1
1743 2154 1
1743 2153 1
1743 2152 1
1743 2151 1
1743 2150 1
1743 2149 1
1743 2148 1
1743 2147 1
1743 2146 1
1743 2145 1
1743 2144 1
1743 2143 1
1743 2142 1
1743 2141 1
1743 2140 1
1743 2139 1
1743 2138 1
1743 2137 1
1743 2136 1
1743 2135 1
1743 2134 1
1743 2133 1
1743 2132 1
1743 2131 1
1743 2130 1
1743 2129 1
1743 2128 1
1743 2127 1
1743 2126 1
1743 2125 1
1743 2124 1
1743 2123 1
1743 2122 1
1743 2121 1
1743 2120 1
1743 2119 1
1743 2118 1
1743 2117 1
1743 2116 1
1743 2115 1
1743 2114 1
1743 2113 1
1743 2112 1
1743 2111 1
1743 2110 1
1743 2109 1
1743 2108 1
1743 2107 1
1743 2106 1
1743 2105 1
1743 2104 1
1743 2103 1
1743 2102 1
1743 2101 1
1743 2100 1
1743 2099 1
1743 2098 1
1743 2097 1
1743 2096 1
1743 2095 1
1743 2094 1
1743 2093 1
1743 2092 1
1743 2091 1
1743 2090 1
1743 2089 1
1743 2088 1
1743 2087 1
1743 2086 1
1743 2085 1
1743 2084 1
1743 2083 1
1743 2082 1
1743 2081 1
1743 2080 1
1743 2079 1
1743 2078 1
1743 2077 1
1743 2076 1
1743 2075 1
1743 2074 1
1743 2073 1
1743 2072 1
1743 2071 1
1743 2070 1
1743 2069 1
1743 2068 1
1743 2067 1
1743 2066 1
1743 2065 1
1743 2064 1
1743 2063 1
1743 2062 1
1743 2061 1
1743 2060 1
1743 2059 1
1743 2058 1
1743 2057 1
1743 2056 1
1743 2055 1
1743 2054 1
1743 2053 1
1743 2052 1
1743 2051 1
1743 2050 1
1743 2049 1
1743 2048 1
1743 2047 1
1743 2046 1
1743 2045 1
1743 2044 1
1743 2043 1
1743 2042 1
1743 2041 1
1743 2040 1
1743 2039 1
1743 2038 1
1743 2037 1
1743 2036 1
1743 2035 1
1743 2034 1
1743 2033 1
1743 2032 1
1743 2031 1
1743 2030 1
1743 2029 1
1743 2028 1
1743 2027 1
1743 2026 1
1743 2025 1
1743 2024 1
1743 2023 1
1743 2022 1
1743 2021 1
1743 2020 1
1743 2019 1
1743 2018 1
1743 2017 1
1743 2016 1
1743 2015 1
1743 2014 1
1743 2013 1
1743 2012 1
1743 2011 1
1743 2010 1
1743 2009 1
1743 2008 1
1743 2007 1
1743 2006 1
1743 2005 1
1743 2004 1
1743 2003 1
1743 2002 1
1743 2001 1
1743 2000 1
1743 1999 1
1743 1998 1
1743 1997 1
1743 1996 1
1743 1995 1
1743 1994 1
1743 1993 1
1743 1992 1
1743 1991 1
1743 1990 1
1743 1989 1
1743 1988 1
1743 1987 1
1743 1986 1
1743 1985 1
1743 1984 1
1743 1983 1
1743 1982 1
1743 1981 1
1743 1980 1
1743 1979 1
1743 1978 1
1743 1977 1
1743 1976 1
1743 1975 1
1743 1974 1
1743 1973 1
1743 1972 1
1743 1971 1
1743 1970 1
1743 1969 1
1743 1968 1
1743 1967 1
1743 1966 1
1743 1965 1
1743 1964 1
1743 1963 1
1743 1962 1
1743 1961 1
1743 1960 1
1743 1959 1
1743 1958 1
1743 1957 1
1743 1956 1
1743 1955 1
1743 1954 1
1743 1953 1
1743 1952 1
1743 1951 1
1743 1950 1
1743 1949 1
1743 1948 1
1743 1947 1
1743 1946 1
1743 1945 1
1743 1944 1
1743 1943 1
1743 1942 1
1743 1941 1
1743 1940 1
1743 1939 1
1743 1938 1
1743 1937 1
1743 1936 1
1743 1935 1
1743 1934 1
1743 1933 1
1743 1932 1
1743 1931 1
1743 1930 1
1743 1929 1
1743 1928 1
1743 1927 1
1743 1926 1
1743 1925 1
1743 1924 1
1743 1923 1
1743 1922 1
1743 1921 1
1743 1920 1
1743 1919 1
1743 1918 1
1743 1917 1
1743 1916 1
1743 1915 1
1743 1914 1
1743 1913 1
1743 1912 1
1743 1911 1
1743 1910 1
1743 1909 1
1743 1908 1
1743 1907 1
1743 1906 1
1743 1905 1
1743 1904 1
1743 1903 1
1743 1902 1
1743 1901 1
1743 1900 1
1743 1899 1
1743 1898 1
1743 1897 1
1743 1896 1
1743 1895 1
1743 1894 1
1743 1893 1
1743 1892 1
1743 1891 1
1743 1890 1
1743 1889 1
1743 1888 1
1743 1887 1
1743 1886 1
1743 1885 1
1743 1884 1
1743 1883 1
1743 1882 1
1743 1881 1
1743 1880 1
1743 1879 1
1743 1878 1
1743 1877 1
1743 1876 1
1743 1875 1
1743 1874 1
1743 1873 1
1743 1872 1
1743 1871 1
1743 1870 1
1743 1869 1
1743 1868 1
1743 1867 1
1743 1866 1
1743 1865 1
1743 1864 1
1743 1863 1
1743 1862 1
1743 1861 1
1743 1860 1
1743 1859 1
1743 1858 1
1743 1857 1
1743 1856 1
1743 1855 1
1743 1854 1
1743 1853 1
1743 1852 1
1743 1851 1
1743 1850 1
1743 1849 1
1743 1848 1
1743 1847 1
1743 1846 1
1743 1845 1
1743 1844 1
1743 1843 1
1743 1842 1
1743 1841 1
1743 1840 1
1743 1839 1
1743 1838 1
1743 1837 1
1743 1836 1
1743 1835 1
1743 1834 1
1743 1833 1
1743 1832 1
1743 1831 1
1743 1830 1
1743 1829 1
1743 1828 1
1743 1827 1
1743 1826 1
1743 1825 1
1743 1824 1
1743 1823 1
1743 1822 1
1743 1821 1
1743 1820 1
1743 1819 1
1743 1818 1
1743 1817 1
1743 1816 1
1743 1815 1
1743 1814 1
1743 1813 1
1743 1812 1
1743 1811 1
1743 1810 1
1743 1809 1
1743 1808 1
1743 1807 1
1743 1806 1
1743 1805 1
1743 1804 1
1743 1803 1
1743 1802 1
1743 1801 1
1743 1800 1
1743 1799 1
1743 1798 1
1743 1797 1
1743 1796 1
1743 1795 1
1743 1794 1
1743 1793 1
1743 1792 1
1743 1791 1
1743 1790 1
1743 1789 1
1743 1788 1
1743 1787 1
1743 1786 1
1743 1785 1
1743 1784 1
1743 1783 1
1743 1782 1
1743 1781 1
1743 1780 1
1743 1779 1
1743 1778 1
1743 1777 1
1743 1776 1
1743 1775 1
1743 1774 1
1743 1773 1
1743 1772 1
1743 1771 1
1743 1770 1
1743 1769 1
1743 1768 1
1743 1767 1
1743 1766 1
1743 1765 1
1743 1764 1
1743 1763 1
1743 1762 1
1743 1761 1
1743 1760 1
1743 1759 1
1743 1758 1
1743 1757 1
1743 1756 1
1743 1755 1
1743 1754 1
1743 1753 1
1743 1752 1
1743 1751 1
1743 1750 1
1743 1749 1
1743 1748 1
1743 1747 1
1743 1746 1
1743 1745 1
1743 1744 1
1743 1743 1
1743 1742 1
1743 1741 1
1743 1740 1
1743 1739 1
1743 1738 1
1743 1737 1
1743 1736 1
1743 1735 1
1743 1734 1
1743 1733 1
1743 1732 1
1743 1731 1
1743 1730 1
1743 1729 1
1743 1728 1
1743 1727 1
1743 1726 1
1743 1725 1
1743 1724 1
1743 1723 1
1743 1722 1
1743 1721 1
1743 1720 1
1743 1719 1
1743 1718 1
1743 1717 1
1743 1716 1
1743 1715 1
1743 1714 1
1743 1713 1
1743 1712 1
1743 1711 1
1743 1710 1
1743 1709 1
1743 1708 1
1743 1707 1
1743 1706 1
1743 1705 1
1743 1704 1
1743 1703 1
1743 1702 1
1743 1701 1
1743 1700 1
1743 1699 1
1743 1698 1
1743 1697 1
1743 1696 1
1743 1695 1
1743 1694 1
1743 1693 1
1743 1692 1
1743 1691 1
1743 1690 1
1743 1689 1
1743 1688 1
1743 1687 1
1743 1686 1
1743 1685 1
1743 1684 1
1743 1683 1
1743 1682 1
1743 1681 1
1743 1680 1
1743 1679 1
1743 1678 1
1743 1677 1
1743 1676 1
1743 1675 1
1743 1674 1
1743 1673 1
1743 1672 1
1743 1671 1
1743 1670 1
1743 1669 1
1743 1668 1
1743 1667 1
1743 1666 1
1743 1665 1
1743 1664 1
1743 1663 1
1743 1662 1
1743 1661 1
1743 1660 1
1743 1659 1
1743 1658 1
1743 1657 1
1743 1656 1
1743 1655 1
1743 1654 1
1743 1653 1
1743 1652 1
1743 1651 1
1743 1650 1
1743 1649 1
1743 1648 1
1743 1647 1
1743 1646 1
1743 1645 1
1743 1644 1
1743 1643 1
1743 1642 1
1743 1641 1
1743 1640 1
1743 1639 1
1743 1638 1
1743 1637 1
1743 1636 1
1743 1635 1
1743 1634 1
1743 1633 1
1743 1632 1
1743 1631 1
1743 1630 1
1743 1629 1
1743 1628 1
1743 1627 1
1743 1626 1
1743 1625 1
1743 1624 1
1743 1623 1
1743 1622 1
1743 1621 1
1743 1620 1
1743 1619 1
1743 1618 1
1743 1617 1
1743 1616 1
1743 1615 1
1743 1614 1
1743 1613 1
1743 1612 1
1743 1611 1
1743 1610 1
1743 1609 1
1743 1608 1
1743 1607 1
1743 1606 1
1743 1605 1
1743 1604 1
1743 1603 1
1743 1602 1
1743 1601 1
1743 1600 1
1743 1599 1
1743 1598 1
1743 1597 1
1743 1596 1
1743 1595 1
1743 1594 1
1743 1593 1
1743 1592 1
1743 1591 1
1743 1590 1
1743 1589 1
1743 1588 1
1743 1587 1
1743 1586 1
1743 1585 1
1743 1584 1
1743 1583 1
1743 1582 1
1743 1581 1
1743 1580 1
1743 1579 1
1743 1578 1
1743 1577 1
1743 1576 1
1743 1575 1
1743 1574 1
1743 1573 1
1743 1572 1
1743 1571 1
1743 1570 1
1743 1569 1
1743 1568 1
1743 1567 1
1743 1566 1
1743 1565 1
1743 1564 1
1743 1563 1
1743 1562 1
1743 1561 1
1743 1560 1
1743 1559 1
1743 1558 1
1743 1557 1
1743 1556 1
1743 1555 1
1743 1554 1
1743 1553 1
1743 1552 1
1743 1551 1
1743 1550 1
1743 1549 1
1743 1548 1
1743 1547 1
1743 1546 1
1743 1545 1
1743 1544 1
1743 1543 1
1743 1542 1
1743 1541 1
1743 1540 1
1743 1539 1
1743 1538 1
1743 1537 1
1743 1536 1
1743 1535 1
1743 1534 1
1743 1533 1
1743 1532 1
1743 1531 1
1743 1530 1
1743 1529 1
1743 1528 1
1743 1527 1
1743 1526 1
1743 1525 1
1743 1524 1
1743 1523 1
1743 1522 1
1743 1521 1
1743 1520 1
1743 1519 1
1743 1518 1
1743 1517 1
1743 1516 1
1743 1515 1
1743 1514 1
1743 1513 1
1743 1512 1
1743 1511 1
1743 1510 1
1743 1509 1
1743 1508 1
1743 1507 1
1743 1506 1
1743 1505 1
1743 1504 1
1743 1503 1
1743 1502 1
1743 1501 1
1743 1500 1
1743 1499 1
1743 1498 1
1743 1497 1
1743 1496 1
1743 1495 1
1743 1494 1
1743 1493 1
1743 1492 1
1743 1491 1
1743 1490 1
1743 1489 1
1743 1488 1
1743 1487 1
1743 1486 1
1743 1485 1
1743 1484 1
1743 1483 1
1743 1482 1
1743 1481 1
1743 1480 1
1743 1479 1
1743 1478 1
1743 1477 1
1743 1476 1
1743 1475 1
1743 1474 1
1743 1473 1
1743 1472 1
1743 1471 1
1743 1470 1
1743 1469 1
1743 1468 1
1743 1467 1
1743 1466 1
1743 1465 1
1743 1464 1
1743 1463 1
1743 1462 1
1743 1461 1
1743 1460 1
1743 1459 1
1743 1458 1
1743 1457 1
1743 1456 1
1743 1455 1
1743 1454 1
1743 1453 1
1743 1452 1
1743 1451 1
1743 1450 1
1743 1449 1
1743 1448 1
1743 1447 1
1743 1446 1
1743 1445 1
1743 1444 1
1743 1443 1
1743 1442 1
1743 1441 1
1743 1440 1
1743 1439 1
1743 1438 1
1743 1437 1
1743 1436 1
1743 1435 1
1743 1434 1
1743 1433 1
1743 1432 1
1743 1431 1
1743 1430 1
1743 1429 1
1743 1428 1
1743 1427 1
1743 1426 1
1743 1425 1
1743 1424 1
1743 1423 1
1743 1422 1
1743 1421 1
1743 1420 1
1743 1419 1
1743 1418 1
1743 1417 1
1743 1416 1
1743 1415 1
1743 1414 1
1743 1413 1
1743 1412 1
1743 1411 1
1743 1410 1
1743 1409 1
1743 1408 1
1743 1407 1
1743 1406 1
1743 1405 1
1743 1404 1
1743 1403 1
1743 1402 1
1743 1401 1
1743 1400 1
1743 1399 1
1743 1398 1
1743 1397 1
1743 1396 1
1743 1395 1
1743 1394 1
1743 1393 1
1743 1392 1
1743 1391 1
1743 1390 1
1743 1389 1
1743 1388 1
1743 1387 1
1743 1386 1
1743 1385 1
1743 1384 1
1743 1383 1
1743 1382 1
1743 1381 1
1743 1380 1
1743 1379 1
1743 1378 1
1743 1377 1
1743 1376 1
1743 1375 1
1743 1374 1
1743 1373 1
1743 1372 1
1743 1371 1
1743 1370 1
1743 1369 1
1743 1368 1
1743 1367 1
1743 1366 1
1743 1365 1
1743 1364 1
1743 1363 1
1743 1362 1
1743 1361 1
1743 1360 1
1743 1359 1
1743 1358 1
1743 1357 1
1743 1356 1
1743 1355 1
1743 1354 1
1743 1353 1
1743 1352 1
1743 1351 1
1743 1350 1
1743 1349 1
1743 1348 1
1743 1347 1
1743 1346 1
1743 1345 1
1743 1344 1
1743 1343 1
1743 1342 1
1743 1341 1
1743 1340 1
1743 1339 1
1743 1338 1
1743 1337 1
1743 1336 1
1743 1335 1
1743 1334 1
1743 1333 1
1743 1332 1
1743 1331 1
1743 1330 1
1743 1329 1
1743 1328 1
1743 1327 1
1743 1326 1
1743 1325 1
1743 1324 1
1743 1323 1
1743 1322 1
1743 1321 1
1743 1320 1
1743 1319 1
1743 1318 1
1743 1317 1
1743 1316 1
1743 1315 1
1743 1314 1
1743 1313 1
1743 1312 1
1743 1311 1
1743 1310 1
1743 1309 1
1743 1308 1
1743 1307 1
1743 1306 1
1743 1305 1
1743 1304 1
1743 1303 1
1743 1302 1
1743 1301 1
1743 1300 1
1743 1299 1
1743 1298 1
1743 1297 1
1743 1296 1
1743 1295 1
1743 1294 1
1743 1293 1
1743 1292 1
1743 1291 1
1743 1290 1
1743 1289 1
1743 1288 1
1743 1287 1
1743 1286 1
1743 1285 1
1743 1284 1
1743 1283 1
1743 1282 1
1743 1281 1
1743 1280 1
1743 1279 1
1743 1278 1
1743 1277 1
1743 1276 1
1743 1275 1
1743 1274 1
1743 1273 1
1743 1272 1
1743 1271 1
1743 1270 1
1743 1269 1
1743 1268 1
1743 1267 1
1743 1266 1
1743 1265 1
1743 1264 1
1743 1263 1
1743 1262 1
1743 1261 1
1743 1260 1
1743 1259 1
1743 1258 1
1743 1257 1
1743 1256 1
1743 1255 1
1743 1254 1
1743 1253 1
1743 1252 1
1743 1251 1
1743 1250 1
1743 1249 1
1743 1248 1
1743 1247 1
1743 1246 1
1743 1245 1
1743 1244 1
1743 1243 1
1743 1242 1
1743 1241 1
1743 1240 1
1743 1239 1
1743 1238 1
1743 1237 1
1743 1236 1
1743 1235 1
1743 1234 1
1743 1233 1
1743 1232 1
1743 1231 1
1743 1230 1
1743 1229 1
1743 1228 1
1743 1227 1
1743 1226 1
1743 1225 1
1743 1224 1
1743 1223 1
1743 1222 1
1743 1221 1
1743 1220 1
1743 1219 1
1743 1218 1
1743 1217 1
1743 1216 1
1743 1215 1
1743 1214 1
1743 1213 1
1743 1212 1
1743 1211 1
1743 1210 1
1743 1209 1
1743 1208 1
1743 1207 1
1743 1206 1
1743 1205 1
1743 1204 1
1743 1203 1
1743 1202 1
1743 1201 1
1743 1200 1
1743 1199 1
1743 1198 1
1743 1197 1
1743 1196 1
1743 1195 1
1743 1194 1
1743 1193 1
1743 1192 1
1743 1191 1
1743 1190 1
1743 1189 1
1743 1188 1
1743 1187 1
1743 1186 1
1743 1185 1
1743 1184 1
1743 1183 1
1743 1182 1
1743 1181 1
1743 1180 1
1743 1179 1
1743 1178 1
1743 1177 1
1743 1176 1
1743 1175 1
1743 1174 1
1743 1173 1
1743 1172 1
1743 1171 1
1743 1170 1
1743 1169 1
1743 1168 1
1743 1167 1
1743 1166 1
1743 1165 1
1743 1164 1
1743 1163 1
1743 1162 1
1743 1161 1
1743 1160 1
1743 1159 1
1743 1158 1
1743 1157 1
1743 1156 1
1743 1155 1
1743 1154 1
1743 1153 1
1743 1152 1
1743 1151 1
1743 1150 1
1743 1149 1
1743 1148 1
1743 1147 1
1743 1146 1
1743 1145 1
1743 1144 1
1743 1143 1
1743 1142 1
1743 1141 1
1743 1140 1
1743 1139 1
1743 1138 1
1743 1137 1
1743 1136 1
1743 1135 1
1743 1134 1
1743 1133 1
1743 1132 1
1743 1131 1
1743 1130 1
1743 1129 1
1743 1128 1
1743 1127 1
1743 1126 1
1743 1125 1
1743 1124 1
1743 1123 1
1743 1122 1
1743 1121 1
1743 1120 1
1743 1119 1
1743 1118 1
1743 1117 1
1743 1116 1
1743 1115 1
1743 1114 1
1743 1113 1
1743 1112 1
1743 1111 1
1743 1110 1
1743 541 1
1743 540 1
1743 539 1
1743 538 1
1743 537 1
1743 536 1
1743 535 1
1743 534 1
1743 533 1
1743 532 1
1743 531 1
1743 530 1
1743 529 1
1743 528 1
1743 527 1
1743 526 1
1743 525 1
1743 524 1
1743 523 1
1743 522 1
1743 521 1
1743 520 1
1743 519 1
1743 518 1
1743 517 1
1743 516 1
1743 515 1
1743 514 1
1743 513 1
1743 512 1
1743 511 1
1743 510 1
1743 509 1
1743 508 1
1743 507 1
1743 506 1
1743 505 1
1743 504 1
1743 503 1
1743 502 1
1743 501 1
1743 500 1
1743 499 1
1743 498 1
1743 497 1
1743 496 1
1743 495 1
1743 494 1
1743 493 1
1743 492 1
1743 491 1
1743 490 1
1743 489 1
1743 488 1
1743 487 1
1743 486 1
1743 485 1
1743 484 1
1743 483 1
1743 482 1
1743 481 1
1743 480 1
1743 479 1
1743 478 1
1743 477 1
1743 476 1
1743 475 1
1743 474 1
1743 473 1
1743 472 1
1743 471 1
1743 470 1
1743 469 1
1743 468 1
1743 467 1
1743 466 1
1743 465 1
1743 464 1
1743 463 1
1743 462 1
1743 461 1
1743 460 1
1743 459 1
1743 458 1
1743 457 1
1743 456 1
1743 455 1
1743 454 1
1743 453 1
1743 452 1
1743 451 1
1743 450 1
1743 449 1
1743 448 1
1743 447 1
1743 446 1
1743 445 1
1743 444 1
1743 443 1
1743 442 1
1743 441 1
1743 440 1
1743 439 1
1743 438 1
1743 437 1
1743 436 1
1743 435 1
1743 434 1
1743 433 1
1743 432 1
1743 431 1
1743 430 1
1743 429 1
1743 428 1
1743 427 1
1743 426 1
1743 425 1
1743 424 1
1743 423 1
1743 422 1
1743 421 1
1743 420 1
1743 419 1
1743 418 1
1743 417 1
1743 416 1
1743 415 1
1743 414 1
1743 413 1
1743 412 1
1743 411 1
1743 410 1
1743 409 1
1743 408 1
1743 407 1
1743 406 1
1743 405 1
1743 404 1
1743 403 1
1743 402 1
1743 401 1
1743 400 1
1743 399 1
1743 398 1
1743 397 1
1743 396 1
1743 395 1
1743 394 1
1743 393 1
1743 392 1
1743 391 1
1743 390 1
1743 389 1
1743 388 1
1743 387 1
1743 386 1
1743 385 1
1743 384 1
1743 383 1
1743 382 1
1743 381 1
1743 380 1
1743 379 1
1743 378 1
1743 377 1
1743 376 1
1743 375 1
1743 374 1
1743 373 1
1743 372 1
1743 371 1
1743 370 1
1743 369 1
1743 368 1
1743 367 1
1743 366 1
1743 365 1
1743 364 1
1743 363 1
1743 362 1
1743 361 1
1743 360 1
1743 359 1
1743 358 1
1743 357 1
1743 356 1
1743 355 1
1743 354 1
1743 353 1
1743 352 1
1743 351 1
1743 350 1
1743 349 1
1743 348 1
1743 347 1
1743 346 1
1743 345 1
1743 344 1
1743 343 1
1743 342 1
1743 341 1
1743 340 1
1743 339 1
1743 338 1
1743 337 1
1743 336 1
1743 335 1
1743 334 1
1743 333 1
1743 332 1
1743 331 1
1743 330 1
1743 329 1
1743 328 1
1743 327 1
1743 326 1
1743 325 1
1743 324 1
1743 323 1
1743 322 1
1743 321 1
1743 320 1
1743 319 1
1743 318 1
1743 317 1
1743 316 1
1743 315 1
1743 314 1
1743 313 1
1743 312 1
1743 311 1
1743 310 1
1743 309 1
1743 308 1
1743 307 1
1743 306 1
1743 305 1
1743 304 1
1743 303 1
1743 302 1
1743 301 1
1743 300 1
1743 299 1
1743 298 1
1743 297 1
1743 296 1
1743 295 1
1743 294 1
1743 293 1
1743 292 1
1743 291 1
1743 290 1
1743 289 1
1743 288 1
1743 287 1
1743 286 1
1743 285 1
1743 284 1
1743 283 1
1743 282 1
1743 281 1
1743 280 1
1743 279 1
1743 278 1
1743 277 1
1743 276 1
1743 275 1
1743 274 1
1743 273 1
1743 272 1
1743 271 1
1743 270 1
1743 269 1
1743 268 1
1743 267 1
1743 266 1
1743 265 1
1743 264 1
1743 263 1
1743 262 1
1743 261 1
1743 260 1
1743 259 1
1743 258 1
1743 127 1
1743 126 1
1743 125 1
1743 124 1
1743 123 1
1743 122 1
1743 121 1
1743 120 1
1743 119 1
1743 118 1
1743 117 1
1743 116 1
1743 115 1
1743 114 1
1743 113 1
1743 112 1
1743 111 1
1743 110 1
1743 109 1
1743 108 1
1743 107 1
1743 106 1
1743 105 1
1743 104 1
1743 103 1
1743 102 1
1743 101 1
1743 100 1
1743 99 1
1743 98 1
1743 97 1
1743 96 1
1743 95 1
1743 94 1
1743 93 1
1743 92 1
1743 91 1
1743 90 1
1743 89 1
1743 88 1
1743 87 1
1743 86 1
1743 85 1
1743 84 1
1743 83 1
1743 82 1
1743 81 1
1743 80 1
1743 79 1
1743 78 1
1743 77 1
1743 76 1
1743 75 1
1743 74 1
1743 73 1
1743 72 1
1743 71 1
1743 70 1
1743 69 1
1743 68 1
1743 67 1
1743 66 1
1743 65 1
1743 64 1
1743 63 1
1743 62 1
1743 61 1
1743 60 1
1743 29 1
1743 28 1
1743 27 1
1743 26 1
1743 25 1
1743 24 1
1743 23 1
1743 22 1
1743 21 1
1743 20 1
1743 19 1
1743 18 1
1743 17 1
1743 16 1
1743 15 1
1743 14 1
1743 1 1
1743 5077 1
1743 2 1
1743 5078 1
1743 3 1
1743 5079 1
1743 4 1
1743 5080 1
1743 5 1
1743 5081 1
1743 6 1
1743 5082 1
1743 7 1
1743 5083 1
1743 8 1
1743 5084 1
1743 9 1
1743 5085 1
1743 10 1
1743 5086 1
1743 11 1
1743 5087 1
1743 12 1
1743 13 1
1743 30 1
1743 31 1
1743 32 1
1743 33 1
1743 34 1
1743 35 1
1743 36 1
1743 37 1
1743 38 1
1743 39 1
1743 40 1
1743 41 1
1743 42 1
1743 43 1
1743 44 1
1743 45 1
1743 46 1
1743 47 1
1743 48 1
1743 49 1
1743 50 1
1743 51 1
1743 52 1
1743 53 1
1743 54 1
1743 55 1
1743 56 1
1743 57 1
1743 58 1
1743 59 1
1743 128 1
1743 129 1
1743 130 1
1743 131 1
1743 132 1
1743 133 1
1743 134 1
1743 135 1
1743 136 1
1743 137 1
1743 138 1
1743 139 1
1743 140 1
1743 141 1
1743 142 1
1743 143 1
1743 144 1
1743 145 1
1743 146 1
1743 147 1
1743 148 1
1743 149 1
1743 150 1
1743 151 1
1743 152 1
1743 153 1
1743 154 1
1743 155 1
1743 156 1
1743 157 1
1743 158 1
1743 159 1
1743 160 1
1743 161 1
1743 162 1
1743 163 1
1743 164 1
1743 165 1
1743 166 1
1743 167 1
1743 168 1
1743 169 1
1743 170 1
1743 171 1
1743 172 1
1743 173 1
1743 174 1
1743 175 1
1743 176 1
1743 177 1
1743 178 1
1743 179 1
1743 180 1
1743 181 1
1743 182 1
1743 183 1
1743 184 1
1743 185 1
1743 186 1
1743 187 1
1743 188 1
1743 189 1
1743 190 1
1743 191 1
1743 192 1
1743 193 1
1743 194 1
1743 195 1
1743 196 1
1743 197 1
1743 198 1
1743 199 1
1743 200 1
1743 201 1
1743 202 1
1743 203 1
1743 204 1
1743 205 1
1743 206 1
1743 207 1
1743 208 1
1743 209 1
1743 210 1
1743 211 1
1743 212 1
1743 213 1
1743 214 1
1743 215 1
1743 216 1
1743 217 1
1743 218 1
1743 219 1
1743 220 1
1743 221 1
1743 222 1
1743 223 1
1743 224 1
1743 225 1
1743 226 1
1743 227 1
1743 228 1
1743 229 1
1743 230 1
1743 231 1
1743 232 1
1743 233 1
1743 234 1
1743 235 1
1743 236 1
1743 237 1
1743 238 1
1743 239 1
1743 240 1
1743 241 1
1743 242 1
1743 243 1
1743 244 1
1743 245 1
1743 246 1
1743 247 1
1743 248 1
1743 249 1
1743 250 1
1743 251 1
1743 252 1
1743 253 1
1743 254 1
1743 255 1
1743 256 1
1743 257 1
1743 542 1
1743 543 1
1743 544 1
1743 545 1
1743 546 1
1743 547 1
1743 548 1
1743 549 1
1743 550 1
1743 551 1
1743 552 1
1743 553 1
1743 554 1
1743 555 1
1743 556 1
1743 557 1
1743 558 1
1743 559 1
1743 560 1
1743 561 1
1743 562 1
1743 563 1
1743 564 1
1743 565 1
1743 566 1
1743 567 1
1743 568 1
1743 569 1
1743 570 1
1743 571 1
1743 572 1
1743 573 1
1743 574 1
1743 575 1
1743 576 1
1743 577 1
1743 578 1
1743 579 1
1743 580 1
1743 581 1
1743 582 1
1743 583 1
1743 584 1
1743 585 1
1743 586 1
1743 587 1
1743 588 1
1743 589 1
1743 590 1
1743 591 1
1743 592 1
1743 593 1
1743 594 1
1743 595 1
1743 596 1
1743 597 1
1743 598 1
1743 599 1
1743 600 1
1743 601 1
1743 602 1
1743 603 1
1743 604 1
1743 605 1
1743 606 1
1743 607 1
1743 608 1
1743 609 1
1743 610 1
1743 611 1
1743 612 1
1743 613 1
1743 614 1
1743 615 1
1743 616 1
1743 617 1
1743 618 1
1743 619 1
1743 620 1
1743 621 1
1743 622 1
1743 623 1
1743 624 1
1743 625 1
1743 626 1
1743 627 1
1743 628 1
1743 629 1
1743 630 1
1743 631 1
1743 632 1
1743 633 1
1743 634 1
1743 635 1
1743 636 1
1743 637 1
1743 638 1
1743 639 1
1743 640 1
1743 641 1
1743 642 1
1743 643 1
1743 644 1
1743 645 1
1743 646 1
1743 647 1
1743 648 1
1743 649 1
1743 650 1
1743 651 1
1743 652 1
1743 653 1
1743 654 1
1743 655 1
1743 656 1
1743 657 1
1743 658 1
1743 659 1
1743 660 1
1743 661 1
1743 662 1
1743 663 1
1743 664 1
1743 665 1
1743 666 1
1743 667 1
1743 668 1
1743 669 1
1743 670 1
1743 671 1
1743 672 1
1743 673 1
1743 674 1
1743 675 1
1743 676 1
1743 677 1
1743 678 1
1743 679 1
1743 680 1
1743 681 1
1743 682 1
1743 683 1
1743 684 1
1743 685 1
1743 686 1
1743 687 1
1743 688 1
1743 689 1
1743 690 1
1743 691 1
1743 692 1
1743 693 1
1743 694 1
1743 695 1
1743 696 1
1743 697 1
1743 698 1
1743 699 1
1743 700 1
1743 701 1
1743 702 1
1743 703 1
1743 704 1
1743 705 1
1743 706 1
1743 707 1
1743 708 1
1743 709 1
1743 710 1
1743 711 1
1743 712 1
1743 713 1
1743 714 1
1743 715 1
1743 716 1
1743 717 1
1743 718 1
1743 719 1
1743 720 1
1743 721 1
1743 722 1
1743 723 1
1743 724 1
1743 725 1
1743 726 1
1743 727 1
1743 728 1
1743 729 1
1743 730 1
1743 731 1
1743 732 1
1743 733 1
1743 734 1
1743 735 1
1743 736 1
1743 737 1
1743 738 1
1743 739 1
1743 740 1
1743 741 1
1743 742 1
1743 743 1
1743 744 1
1743 745 1
1743 746 1
1743 747 1
1743 748 1
1743 749 1
1743 750 1
1743 751 1
1743 752 1
1743 753 1
1743 754 1
1743 755 1
1743 756 1
1743 757 1
1743 758 1
1743 759 1
1743 760 1
1743 761 1
1743 762 1
1743 763 1
1743 764 1
1743 765 1
1743 766 1
1743 767 1
1743 768 1
1743 769 1
1743 770 1
1743 771 1
1743 772 1
1743 773 1
1743 774 1
1743 775 1
1743 776 1
1743 777 1
1743 778 1
1743 779 1
1743 780 1
1743 781 1
1743 782 1
1743 783 1
1743 784 1
1743 785 1
1743 786 1
1743 787 1
1743 788 1
1743 789 1
1743 790 1
1743 791 1
1743 792 1
1743 793 1
1743 794 1
1743 795 1
1743 796 1
1743 797 1
1743 798 1
1743 799 1
1743 800 1
1743 801 1
1743 802 1
1743 803 1
1743 804 1
1743 805 1
1743 806 1
1743 807 1
1743 808 1
1743 809 1
1743 810 1
1743 811 1
1743 812 1
1743 813 1
1743 814 1
1743 815 1
1743 816 1
1743 817 1
1743 818 1
1743 819 1
1743 820 1
1743 821 1
1743 822 1
1743 823 1
1743 824 1
1743 825 1
1743 826 1
1743 827 1
1743 828 1
1743 829 1
1743 830 1
1743 831 1
1743 832 1
1743 833 1
1743 834 1
1743 835 1
1743 836 1
1743 837 1
1743 838 1
1743 839 1
1743 840 1
1743 841 1
1743 842 1
1743 843 1
1743 844 1
1743 845 1
1743 846 1
1743 847 1
1743 848 1
1743 849 1
1743 850 1
1743 851 1
1743 852 1
1743 853 1
1743 854 1
1743 855 1
1743 856 1
1743 857 1
1743 858 1
1743 859 1
1743 860 1
1743 861 1
1743 862 1
1743 863 1
1743 864 1
1743 865 1
1743 866 1
1743 867 1
1743 868 1
1743 869 1
1743 870 1
1743 871 1
1743 872 1
1743 873 1
1743 874 1
1743 875 1
1743 876 1
1743 877 1
1743 878 1
1743 879 1
1743 880 1
1743 881 1
1743 882 1
1743 883 1
1743 884 1
1743 885 1
1743 886 1
1743 887 1
1743 888 1
1743 889 1
1743 890 1
1743 891 1
1743 892 1
1743 893 1
1743 894 1
1743 895 1
1743 896 1
1743 897 1
1743 898 1
1743 899 1
1743 900 1
1743 901 1
1743 902 1
1743 903 1
1743 904 1
1743 905 1
1743 906 1
1743 907 1
1743 908 1
1743 909 1
1743 910 1
1743 911 1
1743 912 1
1743 913 1
1743 914 1
1743 915 1
1743 916 1
1743 917 1
1743 918 1
1743 919 1
1743 920 1
1743 921 1
1743 922 1
1743 923 1
1743 924 1
1743 925 1
1743 926 1
1743 927 1
1743 928 1
1743 929 1
1743 930 1
1743 931 1
1743 932 1
1743 933 1
1743 934 1
1743 935 1
1743 936 1
1743 937 1
1743 938 1
1743 939 1
1743 940 1
1743 941 1
1743 942 1
1743 943 1
1743 944 1
1743 945 1
1743 946 1
1743 947 1
1743 948 1
1743 949 1
1743 950 1
1743 951 1
1743 952 1
1743 953 1
1743 954 1
1743 955 1
1743 956 1
1743 957 1
1743 958 1
1743 959 1
1743 960 1
1743 961 1
1743 962 1
1743 963 1
1743 964 1
1743 965 1
1743 966 1
1743 967 1
1743 968 1
1743 969 1
1743 970 1
1743 971 1
1743 972 1
1743 973 1
1743 974 1
1743 975 1
1743 976 1
1743 977 1
1743 978 1
1743 979 1
1743 980 1
1743 981 1
1743 982 1
1743 983 1
1743 984 1
1743 985 1
1743 986 1
1743 987 1
1743 988 1
1743 989 1
1743 990 1
1743 991 1
1743 992 1
1743 993 1
1743 994 1
1743 995 1
1743 996 1
1743 997 1
1743 998 1
1743 999 1
1743 1000 1
1743 1001 1
1743 1002 1
1743 1003 1
1743 1004 1
1743 1005 1
1743 1006 1
1743 1007 1
1743 1008 1
1743 1009 1
1743 1010 1
1743 1011 1
1743 1012 1
1743 1013 1
1743 1014 1
1743 1015 1
1743 1016 1
1743 1017 1
1743 1018 1
1743 1019 1
1743 1020 1
1743 1021 1
1743 1022 1
1743 1023 1
1743 1024 1
1743 1025 1
1743 1026 1
1743 1027 1
1743 1028 1
1743 1029 1
1743 1030 1
1743 1031 1
1743 1032 1
1743 1033 1
1743 1034 1
1743 1035 1
1743 1036 1
1743 1037 1
1743 1038 1
1743 1039 1
1743 1040 1
1743 1041 1
1743 1042 1
1743 1043 1
1743 1044 1
1743 1045 1
1743 1046 1
1743 1047 1
1743 1048 1
1743 1049 1
1743 1050 1
1743 1051 1
1743 1052 1
1743 1053 1
1743 1054 1
1743 1055 1
1743 1056 1
1743 1057 1
1743 1058 1
1743 1059 1
1743 1060 1
1743 1061 1
1743 1062 1
1743 1063 1
1743 1064 1
1743 1065 1
1743 1066 1
1743 1067 1
1743 1068 1
1743 1069 1
1743 1070 1
1743 1071 1
1743 1072 1
1743 1073 1
1743 1074 1
1743 1075 1
1743 1076 1
1743 1077 1
1743 1078 1
1743 1079 1
1743 1080 1
1743 1081 1
1743 1082 1
1743 1083 1
1743 1084 1
1743 1085 1
1743 1086 1
1743 1087 1
1743 1088 1
1743 1089 1
1743 1090 1
1743 1091 1
1743 1092 1
1743 1093 1
1743 1094 1
1743 1095 1
1743 1096 1
1743 1097 1
1743 1098 1
1743 1099 1
1743 1100 1
1743 1101 1
1743 1102 1
1743 1103 1
1743 1104 1
1743 1105 1
1743 1106 1
1743 1107 1
1743 1108 1
1743 1109 1
1743 2358 1
1743 2359 1
1743 2360 1
1743 2361 1
1743 2362 1
1743 2363 1
1743 2364 1
1743 2365 1
1743 2366 1
1743 2367 1
1743 2368 1
1743 2369 1
1743 2370 1
1743 2371 1
1743 2372 1
1743 2373 1
1743 2374 1
1743 2375 1
1743 2376 1
1743 2377 1
1743 2378 1
1743 2379 1
1743 2380 1
1743 2381 1
1743 2382 1
1743 2383 1
1743 2384 1
1743 2385 1
1743 2386 1
1743 2387 1
1743 2388 1
1743 2389 1
1743 2390 1
1743 2391 1
1743 2392 1
1743 2393 1
1743 2394 1
1743 2395 1
1743 2396 1
1743 2397 1
1743 2398 1
1743 2399 1
1743 2400 1
1743 2401 1
1743 2402 1
1743 2403 1
1743 2404 1
1743 2405 1
1743 2406 1
1743 2407 1
1743 2408 1
1743 2409 1
1743 2410 1
1743 2411 1
1743 2412 1
1743 2413 1
1743 2414 1
1743 2415 1
1743 2416 1
1743 2417 1
1743 2418 1
1743 2419 1
1743 2420 1
1743 2421 1
1743 2422 1
1743 2423 1
1743 2424 1
1743 2425 1
1743 2426 1
1743 2427 1
1743 2428 1
1743 2429 1
1743 2430 1
1743 2431 1
1743 2432 1
1743 2433 1
1743 2434 1
1743 2435 1
1743 2436 1
1743 2437 1
1743 2438 1
1743 2439 1
1743 2440 1
1743 2441 1
1743 2442 1
1743 2443 1
1743 2444 1
1743 2445 1
1743 2446 1
1743 2447 1
1743 2448 1
1743 2449 1
1743 2450 1
1743 2451 1
1743 2452 1
1743 2453 1
1743 2454 1
1743 2455 1
1743 2456 1
1743 2457 1
1743 2458 1
1743 2459 1
1743 2460 1
1743 2461 1
1743 2462 1
1743 2463 1
1743 2464 1
1743 2465 1
1743 2466 1
1743 2467 1
1743 2468 1
1743 2469 1
1743 2470 1
1743 2471 1
1743 2472 1
1743 2473 1
1743 2474 1
1743 2475 1
1743 2476 1
1743 2477 1
1743 2478 1
1743 2479 1
1743 2480 1
1743 2481 1
1743 2482 1
1743 2483 1
1743 2484 1
1743 2485 1
1743 2486 1
1743 2487 1
1743 2488 1
1743 2489 1
1743 2490 1
1743 2491 1
1743 2492 1
1743 2493 1
1743 2494 1
1743 2495 1
1743 2496 1
1743 2497 1
1743 2498 1
1743 2499 1
1743 2500 1
1743 2501 1
1743 2502 1
1743 2503 1
1743 2504 1
1743 2505 1
1743 2506 1
1743 2507 1
1743 2508 1
1743 2509 1
1743 2510 1
1743 2511 1
1743 2512 1
1743 2513 1
1743 2514 1
1743 2515 1
1743 2516 1
1743 2517 1
1743 2518 1
1743 2519 1
1743 2520 1
1743 2521 1
1743 2522 1
1743 2523 1
1743 2524 1
1743 2525 1
1743 2526 1
1743 2527 1
1743 2528 1
1743 2529 1
1743 2530 1
1743 2531 1
1743 2532 1
1743 2533 1
1743 2534 1
1743 2535 1
1743 2536 1
1743 2537 1
1743 2538 1
1743 2539 1
1743 2540 1
1743 2541 1
1743 2542 1
1743 2543 1
1743 2544 1
1743 2545 1
1743 2546 1
1743 2547 1
1743 2548 1
1743 2549 1
1743 2550 1
1743 2551 1
1743 2552 1
1743 2553 1
1743 2554 1
1743 2555 1
1743 2556 1
1743 2557 1
1743 2558 1
1743 2559 1
1743 2560 1
1743 2561 1
1743 2562 1
1743 2563 1
1743 2564 1
1743 2565 1
1743 2566 1
1743 2567 1
1743 2568 1
1743 2569 1
1743 2570 1
1743 2571 1
1743 2572 1
1743 2573 1
1743 2574 1
1743 2575 1
1743 2576 1
1743 2577 1
1743 2578 1
1743 2579 1
1743 2580 1
1743 2581 1
1743 2582 1
1743 2583 1
1743 2584 1
1743 2585 1
1743 2586 1
1743 2587 1
1743 2588 1
1743 2589 1
1743 2590 1
1743 2591 1
1743 2592 1
1743 2593 1
1743 2594 1
1743 2595 1
1743 2596 1
1743 2597 1
1743 2598 1
1743 2599 1
1743 2600 1
1743 2601 1
1743 2602 1
1743 2603 1
1743 2604 1
1743 2605 1
1743 2606 1
1743 2607 1
1743 2608 1
1743 2609 1
1743 2610 1
1743 2611 1
1743 2612 1
1743 2613 1
1743 2614 1
1743 2615 1
1743 2616 1
1743 2617 1
1743 2618 1
1743 2619 1
1743 2620 1
1743 2621 1
1743 2622 1
1743 2623 1
1743 2624 1
1743 2625 1
1743 2626 1
1743 2627 1
1743 2628 1
1743 2629 1
1743 2630 1
1743 2631 1
1743 2632 1
1743 2633 1
1743 2634 1
1743 2635 1
1743 2636 1
1743 2637 1
1743 2638 1
1743 2639 1
1743 2640 1
1743 2641 1
1743 2642 1
1743 2643 1
1743 2644 1
1743 2645 1
1743 2646 1
1743 2647 1
1743 2648 1
1743 2649 1
1743 2650 1
1743 2651 1
1743 2652 1
1743 2653 1
1743 2654 1
1743 2655 1
1743 2656 1
1743 2657 1
1743 2658 1
1743 2659 1
1743 2660 1
1743 2661 1
1743 2662 1
1743 2663 1
1743 2664 1
1743 2665 1
1743 2666 1
1743 2667 1
1743 2668 1
1743 2669 1
1743 2670 1
1743 2671 1
1743 2672 1
1743 2673 1
1743 2674 1
1743 2675 1
1743 2676 1
1743 2677 1
1743 2678 1
1743 2679 1
1743 2680 1
1743 2681 1
1743 2682 1
1743 2683 1
1743 2684 1
1743 2685 1
1743 2686 1
1743 2687 1
1743 2688 1
1743 2689 1
1743 2690 1
1743 2691 1
1743 2692 1
1743 2693 1
1743 2694 1
1743 2695 1
1743 2696 1
1743 2697 1
1743 2698 1
1743 2699 1
1743 2700 1
1743 2701 1
1743 2702 1
1743 2703 1
1743 2704 1
1743 2705 1
1743 2706 1
1743 2707 1
1743 2708 1
1743 2709 1
1743 2710 1
1743 2711 1
1743 2712 1
1743 2713 1
1743 2714 1
1743 2715 1
1743 2716 1
1743 2717 1
1743 2718 1
1743 2719 1
1743 2720 1
1743 2721 1
1743 2722 1
1743 2723 1
1743 2724 1
1743 2725 1
1743 2726 1
1743 2727 1
1743 2728 1
1743 2729 1
1743 2730 1
1743 2731 1
1743 2732 1
1743 2733 1
1743 2734 1
1743 2735 1
1743 2736 1
1743 2737 1
1743 2738 1
1743 2739 1
1743 2740 1
1743 2741 1
1743 2742 1
1743 2743 1
1743 2744 1
1743 2745 1
1743 2746 1
1743 2747 1
1743 2748 1
1743 2749 1
1743 2750 1
1743 2751 1
1743 2752 1
1743 2753 1
1743 2754 1
1743 2755 1
1743 2756 1
1743 2757 1
1743 2758 1
1743 2759 1
1743 2760 1
1743 2761 1
1743 2762 1
1743 2763 1
1743 2764 1
1743 2765 1
1743 2766 1
1743 2767 1
1743 2768 1
1743 2769 1
1743 2770 1
1743 2771 1
1743 2772 1
1743 2773 1
1743 2774 1
1743 2775 1
1743 2776 1
1743 2777 1
1743 2778 1
1743 2779 1
1743 2780 1
1743 2781 1
1743 2782 1
1743 2783 1
1743 2784 1
1743 2785 1
1743 2786 1
1743 2787 1
1743 2788 1
1743 2789 1
1743 2790 1
1743 2791 1
1743 2792 1
1743 2793 1
1743 2794 1
1743 2795 1
1743 2796 1
1743 2797 1
1743 2798 1
1743 2799 1
1743 2800 1
1743 2801 1
1743 2802 1
1743 2803 1
1743 2804 1
1743 2805 1
1743 2806 1
1743 2807 1
1743 2808 1
1743 2809 1
1743 2810 1
1743 2811 1
1743 2812 1
1743 2813 1
1743 2814 1
1743 2815 1
1743 2816 1
1743 2817 1
1743 2818 1
1743 2819 1
1743 2820 1
1743 2821 1
1743 2822 1
1743 2823 1
1743 2824 1
1743 2825 1
1743 2826 1
1743 2827 1
1743 2828 1
1743 2829 1
1743 2830 1
1743 2831 1
1743 2832 1
1743 2833 1
1743 2834 1
1743 2835 1
1743 2836 1
1743 2837 1
1743 2838 1
1743 2839 1
1743 2840 1
1743 2841 1
1743 2842 1
1743 2843 1
1743 2844 1
1743 2845 1
1743 2846 1
1743 2847 1
1743 2848 1
1743 2849 1
1743 2850 1
1743 2851 1
1743 2852 1
1743 2853 1
1743 2854 1
1743 2855 1
1743 2856 1
1743 2857 1
1743 2858 1
1743 2859 1
1743 2860 1
1743 2861 1
1743 2862 1
1743 2863 1
1743 2864 1
1743 2865 1
1743 2866 1
1743 2867 1
1743 2868 1
1743 2869 1
1743 2870 1
1743 2871 1
1743 2872 1
1743 2873 1
1743 2874 1
1743 2875 1
1743 2876 1
1743 2877 1
1743 2878 1
1743 2879 1
1743 2880 1
1743 2881 1
1743 2882 1
1743 2883 1
1743 2884 1
1743 2885 1
1743 2886 1
1743 2887 1
1743 2888 1
1743 2889 1
1743 2890 1
1743 2891 1
1743 2892 1
1743 2893 1
1743 2894 1
1743 2895 1
1743 2896 1
1743 2897 1
1743 2898 1
1743 2899 1
1743 2900 1
1743 2901 1
1743 2902 1
1743 2903 1
1743 2904 1
1743 2905 1
1743 2906 1
1743 2907 1
1743 2908 1
1743 2909 1
1743 2910 1
1743 2911 1
1743 2912 1
1743 2913 1
1743 2914 1
1743 2915 1
1743 2916 1
1743 2917 1
1743 2918 1
1743 2919 1
1743 2920 1
1743 2921 1
1743 2922 1
1743 2923 1
1743 2924 1
1743 2925 1
1743 2926 1
1743 2927 1
1743 2928 1
1743 2929 1
1743 2930 1
1743 2931 1
1743 2932 1
1743 2933 1
1743 2934 1
1743 2935 1
1743 2936 1
1743 2937 1
1743 2938 1
1743 2939 1
1743 2940 1
1743 2941 1
1743 2942 1
1743 2943 1
1743 2944 1
1743 2945 1
1743 2946 1
1743 2947 1
1743 2948 1
1743 2949 1
1743 2950 1
1743 2951 1
1743 2952 1
1743 2953 1
1743 2954 1
1743 2955 1
1743 2956 1
1743 2957 1
1743 2958 1
1743 2959 1
1743 2960 1
1743 2961 1
1743 2962 1
1743 2963 1
1743 2964 1
1743 2965 1
1743 2966 1
1743 2967 1
1743 2968 1
1743 2969 1
1743 2970 1
1743 2971 1
1743 2972 1
1743 2973 1
1743 2974 1
1743 2975 1
1743 2976 1
1743 2977 1
1743 2978 1
1743 2979 1
1743 2980 1
1743 2981 1
1743 2982 1
1743 2983 1
1743 2984 1
1743 2985 1
1743 2986 1
1743 2987 1
1743 2988 1
1743 2989 1
1743 2990 1
1743 2991 1
1743 2992 1
1743 2993 1
1743 2994 1
1743 2995 1
1743 2996 1
1743 2997 1
1743 2998 1
1743 2999 1
1743 3000 1
1743 3001 1
1743 3002 1
1743 3003 1
1743 3004 1
1743 3005 1
1743 3006 1
1743 3007 1
1743 3008 1
1743 3009 1
1743 3010 1
1743 3011 1
1743 3012 1
1743 3013 1
1743 3014 1
1743 3015 1
1743 3016 1
1743 3017 1
1743 3018 1
1743 3019 1
1743 3020 1
1743 3021 1
1743 3022 1
1743 3023 1
1743 3024 1
1743 3025 1
1743 3026 1
1743 3027 1
1743 3028 1
1743 3029 1
1743 3030 1
1743 3031 1
1743 3032 1
1743 3033 1
1743 3034 1
1743 3035 1
1743 3036 1
1743 3037 1
1743 3038 1
1743 3039 1
1743 3040 1
1743 3041 1
1743 3042 1
1743 3043 1
1743 3044 1
1743 3045 1
1743 3046 1
1743 3047 1
1743 3048 1
1743 3049 1
1743 3050 1
1743 3051 1
1743 3052 1
1743 3053 1
1743 3054 1
1743 3055 1
1743 3056 1
1743 3057 1
1743 3058 1
1743 3059 1
1743 3060 1
1743 3061 1
1743 3062 1
1743 3063 1
1743 3064 1
1743 3065 1
1743 3066 1
1743 3067 1
1743 3068 1
1743 3069 1
1743 3070 1
1743 3071 1
1743 3072 1
1743 3073 1
1743 3074 1
1743 3075 1
1743 3076 1
1743 3077 1
1743 3078 1
1743 3079 1
1743 3080 1
1743 3081 1
1743 3082 1
1743 3083 1
1743 3084 1
1743 3085 1
1743 3086 1
1743 3087 1
1743 3088 1
1743 3089 1
1743 3090 1
1743 3091 1
1743 3092 1
1743 3093 1
1743 3094 1
1743 3095 1
1743 3096 1
1743 3097 1
1743 3098 1
1743 3099 1
1743 3100 1
1743 3101 1
1743 3102 1
1743 3103 1
1743 3104 1
1743 3105 1
1743 3106 1
1743 3107 1
1743 3108 1
1743 3109 1
1743 3110 1
1743 3111 1
1743 3112 1
1743 3113 1
1743 3114 1
1743 3115 1
1743 3116 1
1743 3117 1
1743 3118 1
1743 3119 1
1743 3120 1
1743 3121 1
1743 3122 1
1743 3123 1
1743 3124 1
1743 3125 1
1743 3126 1
1743 3127 1
1743 3128 1
1743 3129 1
1743 3130 1
1743 3131 1
1743 3132 1
1743 3133 1
1743 3134 1
1743 3135 1
1743 3136 1
1743 3137 1
1743 3138 1
1743 3139 1
1743 3140 1
1743 3141 1
1743 3142 1
1743 3143 1
1743 3144 1
1743 3145 1
1743 3146 1
1743 3147 1
1743 3148 1
1743 3149 1
1743 3150 1
1743 3151 1
1743 3152 1
1743 3153 1
1743 3154 1
1743 3155 1
1743 3156 1
1743 3157 1
1743 3158 1
1743 3159 1
1743 3160 1
1743 3161 1
1743 3162 1
1743 3163 1
1743 3164 1
1743 3165 1
1743 3166 1
1743 3167 1
1743 3168 1
1743 3169 1
1743 3170 1
1743 3171 1
1743 3172 1
1743 3173 1
1743 3174 1
1743 3175 1
1743 3176 1
1743 3177 1
1743 3178 1
1743 3179 1
1743 3180 1
1743 3181 1
1743 3182 1
1743 3183 1
1743 3184 1
1743 3185 1
1743 3186 1
1743 3187 1
1743 3188 1
1743 3189 1
1743 3190 1
1743 3191 1
1743 3192 1
1743 3193 1
1743 3194 1
1743 3195 1
1743 3196 1
1743 3197 1
1743 3198 1
1743 3199 1
1743 3200 1
1743 3201 1
1743 3202 1
1743 3203 1
1743 3204 1
1743 3205 1
1743 3206 1
1743 3207 1
1743 3208 1
1743 3209 1
1743 3210 1
1743 3211 1
1743 3212 1
1743 3213 1
1743 3214 1
1743 3215 1
1743 3216 1
1743 3217 1
1743 3218 1
1743 3219 1
1743 3220 1
1743 3221 1
1743 3222 1
1743 3223 1
1743 3224 1
1743 3225 1
1743 3226 1
1743 3227 1
1743 3228 1
1743 3229 1
1743 3230 1
1743 3231 1
1743 3232 1
1743 3233 1
1743 3234 1
1743 3235 1
1743 3236 1
1743 3237 1
1743 3238 1
1743 3239 1
1743 3240 1
1743 3241 1
1743 3242 1
1743 3243 1
1743 3244 1
1743 3245 1
1743 3246 1
1743 3247 1
1743 3248 1
1743 3249 1
1743 3250 1
1743 3251 1
1743 3252 1
1743 3253 1
1743 3254 1
1743 3255 1
1743 3256 1
1743 3257 1
1743 3258 1
1743 3259 1
1743 3260 1
1743 3261 1
1743 3262 1
1743 3263 1
1743 3264 1
1743 3265 1
1743 3266 1
1743 3267 1
1743 3268 1
1743 3269 1
1743 3270 1
1743 3271 1
1743 3272 1
1743 3273 1
1743 3274 1
1743 3275 1
1743 3276 1
1743 3277 1
1743 3278 1
1743 3279 1
1743 3280 1
1743 3281 1
1743 3282 1
1743 3283 1
1743 3284 1
1743 3285 1
1743 3286 1
1743 3287 1
1743 3288 1
1743 3289 1
1743 3290 1
1743 3291 1
1743 3292 1
1743 3293 1
1743 3294 1
1743 3295 1
1743 3296 1
1743 3297 1
1743 3298 1
1743 3299 1
1743 3300 1
1743 3301 1
1743 3302 1
1743 3303 1
1743 3304 1
1743 3305 1
1743 3306 1
1743 3307 1
1743 3308 1
1743 3309 1
1743 3310 1
1743 3311 1
1743 3312 1
1743 3313 1
1743 3314 1
1743 3315 1
1743 3316 1
1743 3317 1
1743 3318 1
1743 3319 1
1743 3320 1
1743 3321 1
1743 3322 1
1743 3323 1
1743 3324 1
1743 3325 1
1743 3326 1
1743 3327 1
1743 3328 1
1743 3329 1
1743 3330 1
1743 3331 1
1743 3332 1
1743 3333 1
1743 3334 1
1743 3335 1
1743 3336 1
1743 3337 1
1743 3338 1
1743 3339 1
1743 3340 1
1743 3341 1
1743 3342 1
1743 3343 1
1743 3344 1
1743 3345 1
1743 3346 1
1743 3347 1
1743 3348 1
1743 3349 1
1743 3350 1
1743 3351 1
1743 3352 1
1743 3353 1
1743 3354 1
1743 3355 1
1743 3356 1
1743 3357 1
1743 3358 1
1743 3359 1
1743 3360 1
1743 3361 1
1743 3362 1
1743 3363 1
1743 3364 1
1743 3365 1
1743 3366 1
1743 3367 1
1743 3368 1
1743 3369 1
1743 3370 1
1743 3371 1
1743 3372 1
1743 3373 1
1743 3374 1
1743 3375 1
1743 3376 1
1743 3377 1
1743 3378 1
1743 3379 1
1743 3380 1
1743 3381 1
1743 3382 1
1743 3383 1
1743 3384 1
1743 3385 1
1743 3386 1
1743 3387 1
1743 3388 1
1743 3389 1
1743 3390 1
1743 3391 1
1743 3392 1
1743 3393 1
1743 3394 1
1743 3395 1
1743 3396 1
1743 3397 1
1743 3398 1
1743 3399 1
1743 3400 1
1743 3401 1
1743 3402 1
1743 3403 1
1743 3404 1
1743 3405 1
1743 3406 1
1743 3407 1
1743 3408 1
1743 3409 1
1743 3410 1
1743 3411 1
1743 3412 1
1743 3413 1
1743 3414 1
1743 3415 1
1743 3416 1
1743 3417 1
1743 3418 1
1743 3419 1
1743 3420 1
1743 3421 1
1743 3422 1
1743 3423 1
1743 3424 1
1743 3425 1
1743 3426 1
1743 3427 1
1743 3428 1
1743 3429 1
1743 3430 1
1743 3431 1
1743 3432 1
1743 3433 1
1743 3434 1
1743 3435 1
1743 3436 1
1743 3437 1
1743 3438 1
1743 3439 1
1743 3440 1
1743 3441 1
1743 3442 1
1743 3443 1
1743 3444 1
1743 3445 1
1743 3446 1
1743 3447 1
1743 3448 1
1743 3449 1
1743 3450 1
1743 3451 1
1743 3452 1
1743 3453 1
1743 3454 1
1743 3455 1
1743 3456 1
1743 3457 1
1743 3458 1
1743 3459 1
1743 3460 1
1743 3461 1
1743 3462 1
1743 3463 1
1743 3464 1
1743 3465 1
1743 3466 1
1743 3467 1
1743 3468 1
1743 3469 1
1743 3470 1
1743 3471 1
1743 3472 1
1743 3473 1
1743 3474 1
1743 3475 1
1743 3476 1
1743 3477 1
1743 3478 1
1743 3479 1
1743 3480 1
1743 3481 1
1743 3482 1
1743 3483 1
1743 3484 1
1743 3485 1
1743 3486 1
1743 3487 1
1743 3488 1
1743 3489 1
1743 3490 1
1743 3491 1
1743 3492 1
1743 3493 1
1743 3494 1
1743 3495 1
1743 3496 1
1743 3497 1
1743 3498 1
1743 3499 1
1743 3500 1
1743 3501 1
1743 3502 1
1743 3503 1
1743 3504 1
1743 3505 1
1743 3506 1
1743 3507 1
1743 3508 1
1743 3509 1
1743 3510 1
1743 3511 1
1743 3512 1
1743 3513 1
1743 3514 1
1743 3515 1
1743 3516 1
1743 3517 1
1743 3518 1
1743 3519 1
1743 3520 1
1743 3521 1
1743 3522 1
1743 3523 1
1743 3524 1
1743 3525 1
1743 3526 1
1743 3527 1
1743 3528 1
1743 3529 1
1743 3530 1
1743 3531 1
1743 3532 1
1743 3533 1
1743 3534 1
1743 3535 1
1743 3536 1
1743 3537 1
1743 3538 1
1743 3539 1
1743 3540 1
1743 3541 1
1743 3542 1
1743 3543 1
1743 3544 1
1743 3545 1
1743 3546 1
1743 3547 1
1743 3548 1
1743 3549 1
1743 3550 1
1743 3551 1
1743 3552 1
1743 3553 1
1743 3554 1
1743 3555 1
1743 3556 1
1743 3557 1
1743 3558 1
1743 3559 1
1743 3560 1
1743 3561 1
1743 3562 1
1743 3563 1
1743 3564 1
1743 3565 1
1743 3566 1
1743 3567 1
1743 3568 1
1743 3569 1
1743 3570 1
1743 3571 1
1743 3572 1
1743 3573 1
1743 3574 1
1743 3575 1
1743 3576 1
1743 3577 1
1743 3578 1
1743 3579 1
1743 3580 1
1743 3581 1
1743 3582 1
1743 3583 1
1743 3584 1
1743 3585 1
1743 3586 1
1743 3587 1
1743 3588 1
1743 3589 1
1743 3590 1
1743 3591 1
1743 3592 1
1743 3593 1
1743 3594 1
1743 3595 1
1743 3596 1
1743 3597 1
1743 3598 1
1743 3599 1
1743 3600 1
1743 3601 1
1743 3602 1
1743 3603 1
1743 3604 1
1743 3605 1
1743 3606 1
1743 3607 1
1743 3608 1
1743 3609 1
1743 3610 1
1743 3611 1
1743 3612 1
1743 3613 1
1743 3614 1
1743 3615 1
1743 3616 1
1743 3617 1
1743 3618 1
1743 3619 1
1743 3620 1
1743 3621 1
1743 3622 1
1743 3623 1
1743 3624 1
1743 3625 1
1743 3626 1
1743 3627 1
1743 3628 1
1743 3629 1
1743 3630 1
1743 3631 1
1743 3632 1
1743 3633 1
1743 3634 1
1743 3635 1
1743 3636 1
1743 3637 1
1743 3638 1
1743 3639 1
1743 3640 1
1743 3641 1
1743 3642 1
1743 3643 1
1743 3644 1
1743 3645 1
1743 3646 1
1743 3647 1
1743 3648 1
1743 3649 1
1743 3650 1
1743 3651 1
1743 3652 1
1743 3653 1
1743 3654 1
1743 3655 1
1743 3656 1
1743 3657 1
1743 3658 1
1743 3659 1
1743 3660 1
1743 3661 1
1743 3662 1
1743 3663 1
1743 3664 1
1743 3665 1
1743 3666 1
1743 3667 1
1743 3668 1
1743 3669 1
1743 3670 1
1743 3671 1
1743 3672 1
1743 3673 1
1743 3674 1
1743 3675 1
1743 3676 1
1743 3677 1
1743 3678 1
1743 3679 1
1743 3680 1
1743 3681 1
1743 3682 1
1743 3683 1
1743 3684 1
1743 3685 1
1743 3686 1
1743 3687 1
1743 3688 1
1743 3689 1
1743 3690 1
1743 3691 1
1743 3692 1
1743 3693 1
1743 3694 1
1743 3695 1
1743 3696 1
1743 3697 1
1743 3698 1
1743 3699 1
1743 3700 1
1743 3701 1
1743 3702 1
1743 3703 1
1743 3704 1
1743 3705 1
1743 3706 1
1743 3707 1
1743 3708 1
1743 3709 1
1743 3710 1
1743 3711 1
1743 3712 1
1743 3713 1
1743 3714 1
1743 3715 1
1743 3716 1
1743 3717 1
1743 3718 1
1743 3719 1
1743 3720 1
1743 3721 1
1743 3722 1
1743 3723 1
1743 3724 1
1743 3725 1
1743 3726 1
1743 3727 1
1743 3728 1
1743 3729 1
1743 3730 1
1743 3731 1
1743 3732 1
1743 3733 1
1743 3734 1
1743 3735 1
1743 3736 1
1743 3737 1
1743 3738 1
1743 3739 1
1743 3740 1
1743 3741 1
1743 3742 1
1743 3743 1
1743 3744 1
1743 3745 1
1743 3746 1
1743 3747 1
1743 3748 1
1743 3749 1
1743 3750 1
1743 3751 1
1743 3752 1
1743 3753 1
1743 3754 1
1743 3755 1
1743 3756 1
1743 3757 1
1743 3758 1
1743 3759 1
1743 3760 1
1743 3761 1
1743 3762 1
1743 3763 1
1743 3764 1
1743 3765 1
1743 3766 1
1743 3767 1
1743 3768 1
1743 3769 1
1743 3770 1
1743 3771 1
1743 3772 1
1743 3773 1
1743 3774 1
1743 3775 1
1743 3776 1
1743 3777 1
1743 3778 1
1743 3779 1
1743 3780 1
1743 3781 1
1743 3782 1
1743 3783 1
1743 3784 1
1743 3785 1
1743 3786 1
1743 3787 1
1743 3788 1
1743 3789 1
1743 3790 1
1743 3791 1
1743 3792 1
1743 3793 1
1743 3794 1
1743 3795 1
1743 3796 1
1743 3797 1
1743 3798 1
1743 3799 1
1743 3800 1
1743 3801 1
1743 3802 1
1743 3803 1
1743 3804 1
1743 3805 1
1743 3806 1
1743 3807 1
1743 3808 1
1743 3809 1
1743 3810 1
1743 3811 1
1743 3812 1
1743 3813 1
1743 3814 1
1743 3815 1
1743 3816 1
1743 3817 1
1743 3818 1
1743 3819 1
1743 3820 1
1743 3821 1
1743 3822 1
1743 3823 1
1743 3824 1
1743 3825 1
1743 3826 1
1743 3827 1
1743 3828 1
1743 3829 1
1743 3830 1
1743 3831 1
1743 3832 1
1743 3833 1
1743 3834 1
1743 3835 1
1743 3836 1
1743 3837 1
1743 3838 1
1743 3839 1
1743 3840 1
1743 3841 1
1743 3842 1
1743 3843 1
1743 3844 1
1743 3845 1
1743 3846 1
1743 3847 1
1743 3848 1
1743 3849 1
1743 3850 1
1743 3851 1
1743 3852 1
1743 3853 1
1743 3854 1
1743 3855 1
1743 3856 1
1743 3857 1
1743 3858 1
1743 3859 1
1743 3860 1
1743 3861 1
1743 3862 1
1743 3863 1
1743 3864 1
1743 3865 1
1743 3866 1
1743 3867 1
1743 3868 1
1743 3869 1
1743 3870 1
1743 3871 1
1743 3872 1
1743 3873 1
1743 3874 1
1743 3875 1
1743 3876 1
1743 3877 1
1743 3878 1
1743 3879 1
1743 3880 1
1743 3881 1
1743 3882 1
1743 3883 1
1743 3884 1
1743 3885 1
1743 3886 1
1743 3887 1
1743 3888 1
1743 3889 1
1743 3890 1
1743 3891 1
1743 3892 1
1743 3893 1
1743 3894 1
1743 3895 1
1743 3896 1
1743 3897 1
1743 3898 1
1743 3899 1
1743 3900 1
1743 3901 1
1743 3902 1
1743 3903 1
1743 3904 1
1743 3905 1
1743 3906 1
1743 3907 1
1743 3908 1
1743 3909 1
1743 3910 1
1743 3911 1
1743 3912 1
1743 3913 1
1743 3914 1
1743 3915 1
1743 3916 1
1743 3917 1
1743 3918 1
1743 3919 1
1743 3920 1
1743 3921 1
1743 3922 1
1743 3923 1
1743 3924 1
1743 3925 1
1743 3926 1
1743 3927 1
1743 3928 1
1743 3929 1
1743 3930 1
1743 3931 1
1743 3932 1
1743 3933 1
1743 3934 1
1743 3935 1
1743 3936 1
1743 3937 1
1743 3938 1
1743 3939 1
1743 3940 1
1743 3941 1
1743 3942 1
1743 3943 1
1743 3944 1
1743 3945 1
1743 3946 1
1743 3947 1
1743 3948 1
1743 3949 1
1743 3950 1
1743 3951 1
1743 3952 1
1743 3953 1
1743 3954 1
1743 3955 1
1743 3956 1
1743 3957 1
1743 3958 1
1743 3959 1
1743 3960 1
1743 3961 1
1743 3962 1
1743 3963 1
1743 3964 1
1743 3965 1
1743 3966 1
1743 3967 1
1743 3968 1
1743 3969 1
1743 3970 1
1743 3971 1
1743 3972 1
1743 3973 1
1743 3974 1
1743 3975 1
1743 3976 1
1743 3977 1
1743 3978 1
1743 3979 1
1743 3980 1
1743 3981 1
1743 3982 1
1743 3983 1
1743 3984 1
1743 3985 1
1743 3986 1
1743 3987 1
1743 3988 1
1743 3989 1
1743 3990 1
1743 3991 1
1743 3992 1
1743 3993 1
1743 3994 1
1743 3995 1
1743 3996 1
1743 3997 1
1743 3998 1
1743 3999 1
1743 4000 1
1743 4001 1
1743 4002 1
1743 4003 1
1743 4004 1
1743 4005 1
1743 4006 1
1743 4007 1
1743 4008 1
1743 4009 1
1743 4010 1
1743 4011 1
1743 4012 1
1743 4013 1
1743 4014 1
1743 4015 1
1743 4016 1
1743 4017 1
1743 4018 1
1743 4019 1
1743 4020 1
1743 4021 1
1743 4022 1
1743 4023 1
1743 4024 1
1743 4025 1
1743 4026 1
1743 4027 1
1743 4028 1
1743 4029 1
1743 4030 1
1743 4031 1
1743 4032 1
1743 4033 1
1743 4034 1
1743 4035 1
1743 4036 1
1743 4037 1
1743 4038 1
1743 4039 1
1743 4040 1
1743 4041 1
1743 4042 1
1743 4043 1
1743 4044 1
1743 4045 1
1743 4046 1
1743 4047 1
1743 4048 1
1743 4049 1
1743 4050 1
1743 4051 1
1743 4052 1
1743 4053 1
1743 4054 1
1743 4055 1
1743 4056 1
1743 4057 1
1743 4058 1
1743 4059 1
1743 4060 1
1743 4061 1
1743 4062 1
1743 4063 1
1743 4064 1
1743 4065 1
1743 4066 1
1743 4067 1
1743 4068 1
1743 4069 1
1743 4070 1
1743 4071 1
1743 4072 1
1743 4073 1
1743 4074 1
1743 4075 1
1743 4076 1
1743 4077 1
1743 4078 1
1743 4079 1
1743 4080 1
1743 4081 1
1743 4082 1
1743 4083 1
1743 4084 1
1743 4085 1
1743 4086 1
1743 4087 1
1743 4088 1
1743 4089 1
1743 4090 1
1743 4091 1
1743 4092 1
1743 4093 1
1743 4094 1
1743 4095 1
1743 4096 1
1743 4097 1
1743 4098 1
1743 4099 1
1743 4100 1
1743 4101 1
1743 4102 1
1743 4103 1
1743 4104 1
1743 4105 1
1743 4106 1
1743 4107 1
1743 4108 1
1743 4109 1
1743 4110 1
1743 4111 1
1743 4112 1
1743 4113 1
1743 4114 1
1743 4115 1
1743 4116 1
1743 4117 1
1743 4118 1
1743 4119 1
1743 4120 1
1743 4121 1
1743 4122 1
1743 4123 1
1743 4124 1
1743 4125 1
1743 4126 1
1743 4127 1
1743 4128 1
1743 4129 1
1743 4130 1
1743 4131 1
1743 4132 1
1743 4133 1
1743 4134 1
1743 4135 1
1743 4136 1
1743 4137 1
1743 4138 1
1743 4139 1
1743 4140 1
1743 4141 1
1743 4142 1
1743 4143 1
1743 4144 1
1743 4145 1
1743 4146 1
1743 4147 1
1743 4148 1
1743 4149 1
1743 4150 1
1743 4151 1
1743 4152 1
1743 4153 1
1743 4154 1
1743 4155 1
1743 4156 1
1743 4157 1
1743 4158 1
1743 4159 1
1743 4160 1
1743 4161 1
1743 4162 1
1743 4163 1
1743 4164 1
1743 4165 1
1743 4166 1
1743 4167 1
1743 4168 1
1743 4169 1
1743 4170 1
1743 4171 1
1743 4172 1
1743 4173 1
1743 4174 1
1743 4175 1
1743 4176 1
1743 4177 1
1743 4178 1
1743 4179 1
1743 4180 1
1743 4181 1
1743 4182 1
1743 4183 1
1743 4184 1
1743 4185 1
1743 4186 1
1743 4187 1
1743 4188 1
1743 4189 1
1743 4190 1
1743 4191 1
1743 4192 1
1743 4193 1
1743 4194 1
1743 4195 1
1743 4196 1
1743 4197 1
1743 4198 1
1743 4199 1
1743 4200 1
1743 4201 1
1743 4202 1
1743 4203 1
1743 4204 1
1743 4205 1
1743 4206 1
1743 4207 1
1743 4208 1
1743 4209 1
1743 4210 1
1743 4211 1
1743 4212 1
1743 4213 1
1743 4214 1
1743 4215 1
1743 4216 1
1743 4217 1
1743 4218 1
1743 4219 1
1743 4220 1
1743 4221 1
1743 4222 1
1743 4223 1
1743 4224 1
1743 4225 1
1743 4226 1
1743 4227 1
1743 4228 1
1743 4229 1
1743 4230 1
1743 4231 1
1743 4232 1
1743 4233 1
1743 4234 1
1743 4235 1
1743 4236 1
1743 4237 1
1743 4238 1
1743 4239 1
1743 4240 1
1743 4241 1
1743 4242 1
1743 4243 1
1743 4244 1
1743 4245 1
1743 4246 1
1743 4247 1
1743 4248 1
1743 4249 1
1743 4250 1
1743 4251 1
1743 4252 1
1743 4253 1
1743 4254 1
1743 4255 1
1743 4256 1
1743 4257 1
1743 4258 1
1743 4259 1
1743 4260 1
1743 4261 1
1743 4262 1
1743 4263 1
1743 4264 1
1743 4265 1
1743 4266 1
1743 4267 1
1743 4268 1
1743 4269 1
1743 4270 1
1743 4271 1
1743 4272 1
1743 4273 1
1743 4274 1
1743 4275 1
1743 4276 1
1743 4277 1
1743 4278 1
1743 4279 1
1743 4280 1
1743 4281 1
1743 4282 1
1743 4283 1
1743 4284 1
1743 4285 1
1743 4286 1
1743 4287 1
1743 4288 1
1743 4289 1
1743 4290 1
1743 4291 1
1743 4292 1
1743 4293 1
1743 4294 1
1743 4295 1
1743 4296 1
1743 4297 1
1743 4298 1
1743 4299 1
1743 4300 1
1743 4301 1
1743 4302 1
1743 4303 1
1743 4304 1
1743 4305 1
1743 4306 1
1743 4307 1
1743 4308 1
1743 4309 1
1743 4310 1
1743 4311 1
1743 4312 1
1743 4313 1
1743 4314 1
1743 4315 1
1743 4316 1
1743 4317 1
1743 4318 1
1743 4319 1
1743 4320 1
1743 4321 1
1743 4322 1
1743 4323 1
1743 4324 1
1743 4325 1
1743 4326 1
1743 4327 1
1743 4328 1
1743 4329 1
1743 4330 1
1743 4331 1
1743 4332 1
1743 4333 1
1743 4334 1
1743 4335 1
1743 4336 1
1743 4337 1
1743 4338 1
1743 4339 1
1743 4340 1
1743 4341 1
1743 4342 1
1743 4343 1
1743 4344 1
1743 4345 1
1743 4346 1
1743 4347 1
1743 4348 1
1743 4349 1
1743 4350 1
1743 4351 1
1743 4352 1
1743 4353 1
1743 4354 1
1743 4355 1
1743 4356 1
1743 4357 1
1743 4358 1
1743 4359 1
1743 4360 1
1743 4361 1
1743 4362 1
1743 4363 1
1743 4364 1
1743 4365 1
1743 4366 1
1743 4367 1
1743 4368 1
1743 4369 1
1743 4370 1
1743 4371 1
1743 4372 1
1743 4373 1
1743 4374 1
1743 4375 1
1743 4376 1
1743 4377 1
1743 4378 1
1743 4379 1
1743 4380 1
1743 4381 1
1743 4382 1
1743 4383 1
1743 4384 1
1743 4385 1
1743 4386 1
1743 4387 1
1743 4388 1
1743 4389 1
1743 4390 1
1743 4391 1
1743 4392 1
1743 4393 1
1743 4394 1
1743 4395 1
1743 4396 1
1743 4397 1
1743 4398 1
1743 4399 1
1743 4400 1
1743 4401 1
1743 4402 1
1743 4403 1
1743 4404 1
1743 4405 1
1743 4406 1
1743 4407 1
1743 4408 1
1743 4409 1
1743 4410 1
1743 4411 1
1743 4412 1
1743 4413 1
1743 4414 1
1743 4415 1
1743 4416 1
1743 4417 1
1743 4418 1
1743 4419 1
1743 4420 1
1743 4421 1
1743 4422 1
1743 4423 1
1743 4424 1
1743 4425 1
1743 4426 1
1743 4427 1
1743 4428 1
1743 4429 1
1743 4430 1
1743 4431 1
1743 4432 1
1743 4433 1
1743 4434 1
1743 4435 1
1743 4436 1
1743 4437 1
1743 4438 1
1743 4439 1
1743 4440 1
1743 4441 1
1743 4442 1
1743 4443 1
1743 4444 1
1743 4445 1
1743 4446 1
1743 4447 1
1743 4448 1
1743 4449 1
1743 4450 1
1743 4451 1
1743 4452 1
1743 4453 1
1743 4454 1
1743 4455 1
1743 4456 1
1743 4457 1
1743 4458 1
1743 4459 1
1743 4460 1
1743 4461 1
1743 4462 1
1743 4463 1
1743 4464 1
1743 4465 1
1743 4466 1
1743 4467 1
1743 4468 1
1743 4469 1
1743 4470 1
1743 4471 1
1743 4472 1
1743 4473 1
1743 4474 1
1743 4475 1
1743 4476 1
1743 4477 1
1743 4478 1
1743 4479 1
1743 4480 1
1743 4481 1
1743 4482 1
1743 4483 1
1743 4484 1
1743 4485 1
1743 4486 1
1743 4487 1
1743 4488 1
1743 4489 1
1743 4490 1
1743 4491 1
1743 4492 1
1743 4493 1
1743 4494 1
1743 4495 1
1743 4496 1
1743 4497 1
1743 4498 1
1743 4499 1
1743 4500 1
1743 4501 1
1743 4502 1
1743 4503 1
1743 4504 1
1743 4505 1
1743 4506 1
1743 4507 1
1743 4508 1
1743 4509 1
1743 4510 1
1743 4511 1
1743 4512 1
1743 4513 1
1743 4514 1
1743 4515 1
1743 4516 1
1743 4517 1
1743 4518 1
1743 4519 1
1743 4520 1
1743 4521 1
1743 4522 1
1743 4523 1
1743 4524 1
1743 4525 1
1743 4526 1
1743 4527 1
1743 4528 1
1743 4529 1
1743 4530 1
1743 4531 1
1743 4532 1
1743 4533 1
1743 4534 1
1743 4535 1
1743 4536 1
1743 4537 1
1743 4538 1
1743 4539 1
1743 4540 1
1743 4541 1
1743 4542 1
1743 4543 1
1743 4544 1
1743 4545 1
1743 4546 1
1743 4547 1
1743 4548 1
1743 4549 1
1743 4550 1
1743 4551 1
1743 4552 1
1743 4553 1
1743 4554 1
1743 4555 1
1743 4556 1
1743 4557 1
1743 4558 1
1743 4559 1
1743 4560 1
1743 4561 1
1743 4562 1
1743 4563 1
1743 4564 1
1743 4565 1
1743 4566 1
1743 4567 1
1743 4568 1
1743 4569 1
1743 4570 1
1743 4571 1
1743 4572 1
1743 4573 1
1743 4574 1
1743 4575 1
1743 4576 1
1743 4577 1
1743 4578 1
1743 4579 1
1743 4580 1
1743 4581 1
1743 4582 1
1743 4583 1
1743 4584 1
1743 4585 1
1743 4586 1
1743 4587 1
1743 4588 1
1743 4589 1
1743 4590 1
1743 4591 1
1743 4592 1
1743 4593 1
1743 4594 1
1743 4595 1
1743 4596 1
1743 4597 1
1743 4598 1
1743 4599 1
1743 4600 1
1743 4601 1
1743 4602 1
1743 4603 1
1743 4604 1
1743 4605 1
1743 4606 1
1743 4607 1
1743 4608 1
1743 4609 1
1743 4610 1
1743 4611 1
1743 4612 1
1743 4613 1
1743 4614 1
1743 4615 1
1743 4616 1
1743 4617 1
1743 4618 1
1743 4619 1
1743 4620 1
1743 4621 1
1743 4622 1
1743 4623 1
1743 4624 1
1743 4625 1
1743 4626 1
1743 4627 1
1743 4628 1
1743 4629 1
1743 4630 1
1743 4631 1
1743 4632 1
1743 4633 1
1743 4634 1
1743 4635 1
1743 4636 1
1743 4637 1
1743 4638 1
1743 4639 1
1743 4640 1
1743 4641 1
1743 4642 1
1743 4643 1
1743 4644 1
1743 4645 1
1743 4646 1
1743 4647 1
1743 4648 1
1743 4649 1
1743 4650 1
1743 4651 1
1743 4652 1
1743 4653 1
1743 4654 1
1743 4655 1
1743 4656 1
1743 4657 1
1743 4658 1
1743 4659 1
1743 4660 1
1743 4661 1
1743 4662 1
1743 4663 1
1743 4664 1
1743 4665 1
1743 4666 1
1743 4667 1
1743 4668 1
1743 4669 1
1743 4670 1
1743 4671 1
1743 4672 1
1743 4673 1
1743 4674 1
1743 4675 1
1743 4676 1
1743 4677 1
1743 4678 1
1743 4679 1
1743 4680 1
1743 4681 1
1743 4682 1
1743 4683 1
1743 4684 1
1743 4685 1
1743 4686 1
1743 4687 1
1743 4688 1
1743 4689 1
1743 4690 1
1743 4691 1
1743 4692 1
1743 4693 1
1743 4694 1
1743 4695 1
1743 4696 1
1743 4697 1
1743 4698 1
1743 4699 1
1743 4700 1
1743 4701 1
1743 4702 1
1743 4703 1
1743 4704 1
1743 4705 1
1743 4706 1
1743 4707 1
1743 4708 1
1743 4709 1
1743 4710 1
1743 4711 1
1743 4712 1
1743 4713 1
1743 4714 1
1743 4715 1
1743 4716 1
1743 4717 1
1743 4718 1
1743 4719 1
1743 4720 1
1743 4721 1
1743 4722 1
1743 4723 1
1743 4724 1
1743 4725 1
1743 4726 1
1743 4727 1
1743 4728 1
1743 4729 1
1743 4730 1
1743 4731 1
1743 4732 1
1743 4733 1
1743 4734 1
1743 4735 1
1743 4736 1
1743 4737 1
1743 4738 1
1743 4739 1
1743 4740 1
1743 4741 1
1743 4742 1
1743 4743 1
1743 4744 1
1743 4745 1
1743 4746 1
1743 4747 1
1743 4748 1
1743 4749 1
1743 4750 1
1743 4751 1
1743 4752 1
1743 4753 1
1743 4754 1
1743 4755 1
1743 4756 1
1743 4757 1
1743 4758 1
1743 4759 1
1743 4760 1
1743 4761 1
1743 4762 1
1743 4763 1
1743 4764 1
1743 4765 1
1743 4766 1
1743 4767 1
1743 4768 1
1743 4769 1
1743 4770 1
1743 4771 1
1743 4772 1
1743 4773 1
1743 4774 1
1743 4775 1
1743 4776 1
1743 4777 1
1743 4778 1
1743 4779 1
1743 4780 1
1743 4781 1
1743 4782 1
1743 4783 1
1743 4784 1
1743 4785 1
1743 4786 1
1743 4787 1
1743 4788 1
1743 4789 1
1743 4790 1
1743 4791 1
1743 4792 1
1743 4793 1
1743 4794 1
1743 4795 1
1743 4796 1
1743 4797 1
1743 4798 1
1743 4799 1
1743 4800 1
1743 4801 1
1743 4802 1
1743 4803 1
1743 4804 1
1743 4805 1
1743 4806 1
1743 4807 1
1743 4808 1
1743 4809 1
1743 4810 1
1743 4811 1
1743 4812 1
1743 4813 1
1743 4814 1
1743 4815 1
1743 4816 1
1743 4817 1
1743 4818 1
1743 4819 1
1743 4820 1
1743 4821 1
1743 4822 1
1743 4823 1
1743 4824 1
1743 4825 1
1743 4826 1
1743 4827 1
1743 4828 1
1743 4829 1
1743 4830 1
1743 4831 1
1743 4832 1
1743 4833 1
1743 4834 1
1743 4835 1
1743 4836 1
1743 4837 1
1743 4838 1
1743 4839 1
1743 4840 1
1743 4841 1
1743 4842 1
1743 4843 1
1743 4844 1
1743 4845 1
1743 4846 1
1743 4847 1
1743 4848 1
1743 4849 1
1743 4850 1
1743 4851 1
1743 4852 1
1743 4853 1
1743 4854 1
1743 4855 1
1743 4856 1
1743 4857 1
1743 4858 1
1743 4859 1
1743 4860 1
1743 4861 1
1743 4862 1
1743 4863 1
1743 4864 1
1743 4865 1
1743 4866 1
1743 4867 1
1743 4868 1
1743 4869 1
1743 4870 1
1743 4871 1
1743 4872 1
1743 4873 1
1743 4874 1
1743 4875 1
1743 4876 1
1743 4877 1
1743 4878 1
1743 4879 1
1743 4880 1
1743 4881 1
1743 4882 1
1743 4883 1
1743 4884 1
1743 4885 1
1743 4886 1
1743 4887 1
1743 4888 1
1743 4889 1
1743 4890 1
1743 4891 1
1743 4892 1
1743 4893 1
1743 4894 1
1743 4895 1
1743 4896 1
1743 4897 1
1743 4898 1
1743 4899 1
1743 4900 1
1743 4901 1
1743 4902 1
1743 4903 1
1743 4904 1
1743 4905 1
1743 4906 1
1743 4907 1
1743 4908 1
1743 4909 1
1743 4910 1
1743 4911 1
1743 4912 1
1743 4913 1
1743 4914 1
1743 4915 1
1743 4916 1
1743 4917 1
1743 4918 1
1743 4919 1
1743 4920 1
1743 4921 1
1743 4922 1
1743 4923 1
1743 4924 1
1743 4925 1
1743 4926 1
1743 4927 1
1743 4928 1
1743 4929 1
1743 4930 1
1743 4931 1
1743 4932 1
1743 4933 1
1743 4934 1
1743 4935 1
1743 4936 1
1743 4937 1
1743 4938 1
1743 4939 1
1743 4940 1
1743 4941 1
1743 4942 1
1743 4943 1
1743 4944 1
1743 4945 1
1743 4946 1
1743 4947 1
1743 4948 1
1743 4949 1
1743 4950 1
1743 4951 1
1743 4952 1
1743 4953 1
1743 4954 1
1743 4955 1
1743 4956 1
1743 4957 1
1743 4958 1
1743 4959 1
1743 4960 1
1743 4961 1
1743 4962 1
1743 4963 1
1743 4964 1
1743 4965 1
1743 4966 1
1743 4967 1
1743 4968 1
1743 4969 1
1743 4970 1
1743 4971 1
1743 4972 1
1743 4973 1
1743 4974 1
1743 4975 1
1743 4976 1
1743 4977 1
1743 4978 1
1743 4979 1
1743 4980 1
1743 4981 1
1743 4982 1
1743 4983 1
1743 4984 1
1743 4985 1
1743 4986 1
1743 4987 1
1743 4988 1
1743 4989 1
1743 4990 1
1743 4991 1
1743 4992 1
1743 4993 1
1743 4994 1
1743 4995 1
1743 4996 1
1743 4997 1
1743 4998 1
1743 4999 1
1743 5000 1
1743 5001 1
1743 5002 1
1743 5003 1
1743 5004 1
1743 5005 1
1743 5006 1
1743 5007 1
1743 5008 1
1743 5009 1
1743 5010 1
1743 5011 1
1743 5012 1
1743 5013 1
1743 5014 1
1743 5015 1
1743 5016 1
1743 5017 1
1743 5018 1
1743 5019 1
1743 5020 1
1743 5021 1
1743 5022 1
1743 5023 1
1743 5024 1
1743 5025 1
1743 5026 1
1743 5027 1
1743 5028 1
1743 5029 1
1743 5030 1
1743 5031 1
1743 5032 1
1743 5033 1
1743 5034 1
1743 5035 1
1743 5036 1
1743 5037 1
1743 5038 1
1743 5039 1
1743 5040 1
1743 5041 1
1743 5042 1
1743 5043 1
1743 5044 1
1743 5045 1
1743 5046 1
1743 5047 1
1743 5048 1
1743 5049 1
1743 5050 1
1743 5051 1
1743 5052 1
1743 5053 1
1743 5054 1
1743 5055 1
1743 5056 1
1743 5057 1
1743 5058 1
1743 5059 1
1743 5060 1
1743 5061 1
1743 5062 1
1743 5063 1
1743 5064 1
1743 5065 1
1743 5066 1
1743 5067 1
1743 5068 1
1743 5069 1
1743 5070 1
1743 5071 1
1743 5072 1
1743 5073 1
1743 5074 1
1743 5075 1
1743 5076 1
